echo both

include		in.partitions
include		in.temp
include		in.pressure
include		in.seed
units		metal
atom_style	atomic
read_restart    restart.lmp.${pid}
include         in.setup

timer           timeout 23:50:00 every 1000

include         in.dump

fix             1 all plumed plumedfile plumed.dat outfile plumed.out
fix             2 all nph iso ${pressure} ${pressure} ${pressureDamp}
fix             3 all temp/csvr ${temperature} ${temperature} ${tempDamp} ${seed}

run             40000000 upto

write_data	data.final.${pid}

write_restart   restart.lmp.${pid}
