&CONTROL
   calculation      = 'vc-relax'
   tstress          = .true.
   tprnfor          = .true.
   outdir           = './'
   pseudo_dir       = '/home/ppiaggi/QuantumEspresso/pseudos'
/
&SYSTEM
   ecutwfc          = 150
   input_dft        = 'SCAN'
   ntyp             = 2
   nat              = 192
   ibrav            = 0
/
&ELECTRONS
   mixing_beta      = 0.5
   startingpot      = 'atomic'
   startingwfc      = 'atomic+random'
/
&IONS
/
&CELL
/

ATOMIC_SPECIES
H 1.0079400002592869 H_ONCV_PBE_sr.upf
O 15.999400004115753 O_ONCV_PBE_sr.upf

K_POINTS gamma

CELL_PARAMETERS angstrom
12.47398024762157 0.00000000000000 0.00000000000000
0.00000000000000 12.47855946409496 0.00000000000000
0.00000000000000 0.00000000000000 12.43992754631762

ATOMIC_POSITIONS angstrom
H 0.6994990646 0.6934010178 0.7133629917 
H 3.8246557726 3.8199825455 0.7173254418 
H 2.7037925893 0.7005049236 2.7014342540 
O 0.1582828966 3.2671199881 3.2372315221 
H 0.7135994766 3.8324091937 3.8298543798 
O 1.7023439840 1.6721831273 1.7011045286 
H 1.1504343469 2.2715603263 2.2621208046 
H 2.2696877819 2.2581861935 1.1415179715 
H 4.2521991241 1.1424147958 4.2629446494 
O 6.3953798845 0.1443470355 0.1846319006 
O 6.4084803990 3.2511434554 3.2684726297 
H 5.8164465505 3.8126953963 2.7108419647 
H 5.8115925493 2.6959439843 3.8291118302 
O 7.9791276126 1.7101524023 1.7191283741 
H 7.3942452412 1.1487431652 1.1533440619 
H 7.3779578389 2.2657526426 2.2750052661 
H 7.3938561230 4.2504185682 4.2726270160 
H 12.0709282340 2.7100383809 3.8294169031 
H 8.9572983443 2.7106087626 0.7206782756 
O 9.5088226678 0.1458747933 3.2928848639 
H 8.9488697527 0.7112190303 2.7049576570 
H 10.5067669367 1.1404590656 4.2755831740 
H 10.5130413003 4.2602158356 1.1440161479 
H 11.6321226004 4.2692098761 2.2630789455 
H 4.2425033361 5.3774399512 2.2701033967 
H 0.7131450737 6.9604482036 0.7205504909 
O 3.2433807344 6.3828658650 3.2369463223 
H 2.6832895335 5.8249839727 3.8328061144 
H 3.8083356090 6.9388427938 3.8283030378 
O 1.7052317834 7.9498464498 1.6778085710 
H 2.2585228071 7.3821260030 2.2706547458 
O 4.8025197194 4.7858833410 1.7094702176 
H 5.3676715143 5.3800071108 1.1549530297 
O 6.3422968506 6.3672177027 0.1696436060 
H 6.9287025834 6.9324601717 0.7305018248 
O 7.9210817799 7.9080771428 1.7272182178 
O 11.0708926095 4.8585436264 1.7014862806 
H 12.0690092264 5.8363250910 0.7164379096 
O 9.4998899014 6.3732899982 3.3015438053 
H 10.0593012622 5.8207652330 2.7017331123 
H 8.9318864086 6.9319340214 2.7159956961 
H 10.5054998557 7.3723011767 4.2770264403 
H 8.5126246205 5.3683846816 4.2679885827 
O 3.2655247705 12.6180923805 3.2907031320 
H 3.8313765081 12.0663545206 2.6947578523 
H 2.7121248860 8.9422375379 0.7119642570 
O 0.1553642134 9.4985388523 3.2497300969 
H 0.7197039526 10.0572236613 3.8386610845 
H 1.1455595848 8.5063942936 2.2743435135 
H 4.2748948323 10.5182629818 1.1460922180 
H 2.2835832669 11.6219366180 4.2668401361 
H 7.3665745009 8.5064565523 2.2859969885 
O 4.8298712440 11.0807203152 1.7406934685 
H 5.3946499354 11.6367646108 1.1476119600 
H 5.3794770718 8.4973056383 4.2725833598 
O 6.3726590197 9.4819398953 3.2805139594 
H 5.8220922853 10.0806265048 2.7179930878 
H 6.9390288482 10.0709801632 3.8370825714 
H 8.4841184646 8.4956028395 1.1648097929 
H 8.5048371070 11.6339811981 4.2651412106 
H 10.0612371879 12.0606369545 2.6981548228 
H 12.0735826289 8.9375019818 3.8448093080 
H 10.0566892669 10.0438046923 0.7168598862 
O 11.0261978260 11.0450048841 1.6992354540 
H 11.6195252473 10.4903936749 2.2620144099 
H 11.6207635971 11.6056376520 1.1403748353 
H 2.2563358314 4.2682359643 5.3871313437 
O 0.1966238926 0.1485842336 6.3802229694 
O 3.2487203285 3.2692262318 6.3514956679 
H 2.6880445806 2.7139796350 6.9476285060 
H 3.8117973364 3.8287645427 6.9414409528 
O 1.6975502253 1.7384489216 7.9524699584 
H 1.1439460598 1.1436719041 7.3868364588 
H 4.2441926927 2.2644355643 5.3795326630 
O 4.8413624865 1.7059992864 4.8234965808 
H 5.8050709400 0.6955687907 5.8211485091 
O 7.9536750823 1.6891714094 7.9476913711 
H 7.3595209080 1.1337908046 7.3846823202 
O 11.1001699119 1.6995836660 4.8354531053 
H 10.5057662703 2.2526299630 5.4009058954 
H 12.0771320788 0.7081273970 5.8201243136 
O 9.5354218618 3.2415251009 6.4022135122 
H 8.9393844492 2.6789367119 6.9556976098 
H 8.9445448433 3.7987067273 5.8377269114 
H 10.5022383375 4.2468227919 7.3960005928 
O 1.6965409038 4.8297312327 4.7946919770 
H 1.1381815450 5.3866368191 5.3929877174 
H 0.7038253788 6.9301354408 6.9640873096 
O 1.6948070643 7.9107840514 7.9551986783 
O 7.9574234955 4.8067903408 4.8638068945 
O 4.7906953260 7.9302434320 4.8287691375 
H 5.3877829259 7.3726379052 5.3860261981 
O 4.8198146921 4.7943333962 7.9340611596 
H 5.3837513338 5.3886487837 7.3807076697 
O 6.3638224423 6.3842443328 6.3835271696 
H 6.9593471377 5.8222401277 5.8296746380 
H 6.9540847812 6.9492995776 6.9405582139 
O 7.9487215111 7.9590212120 7.9081710085 
O 12.6186741817 6.3714255316 6.3689773751 
O 11.0658557315 7.9646844112 4.8356220187 
H 11.6218712560 7.3714363669 5.3986589132 
O 11.0598295387 4.8468564956 7.9497859807 
H 12.0596341055 5.8076509576 6.9601190447 
H 2.2535376285 8.5011197985 7.3917758130 
O 1.7275133782 11.0323407735 4.8342449919 
H 1.1665556344 11.6291688516 5.3889991485 
O 3.2584055815 9.4854649510 6.4230648501 
H 2.7110950929 10.0569125421 5.8284946375 
H 3.8227760389 8.9302720725 5.8303742741 
H 4.2533534362 10.4908584974 7.3832573240 
O 6.3644800313 12.6129962571 6.4129054582 
O 7.9151589175 11.0775498666 4.8313544547 
H 6.9298869437 12.0588783987 5.8192229819 
O 4.8149291663 11.0538325250 7.9718258456 
H 5.3691997397 11.6140859660 7.3734415680 
H 8.5124332585 10.5130633775 5.3820946794 
H 12.0730181426 12.0694311250 6.9380240150 
O 9.5083817450 9.5427144163 6.3676789922 
H 8.9507383304 8.9553910977 6.9348461437 
H 10.0700267385 8.9432854419 5.8163023584 
O 11.0959055004 11.0839846881 7.9240393166 
H 10.5040323964 10.5240266711 7.3634160802 
O 3.2730988000 3.2233692473 12.5906710049 
H 2.7118156990 3.8171599742 12.0343215025 
H 3.8323912322 0.6949824535 10.0583254793 
H 0.6965557410 2.7025028805 8.9453572503 
H 2.2583907492 1.1447806248 8.5093211097 
H 4.2700835464 2.2591104975 11.6053521919 
H 1.1330378799 4.2696086359 10.4900064303 
H 5.8321175652 0.7013755339 12.0311182574 
O 4.8295240299 1.6659773850 11.0445228905 
H 5.3863993868 2.2612278365 10.4842029310 
O 6.3700471242 3.2412806098 9.4916248737 
H 5.8083335518 3.8327423917 8.9306231692 
H 6.9298926374 3.8364389078 10.0482472069 
H 7.3629826366 2.2592293846 8.4991828679 
O 9.5185129465 3.2994121809 12.5981507342 
O 12.6111755458 3.2957602709 9.5057275448 
H 8.5108944385 4.2767607040 11.5992992652 
H 10.0718417677 2.6998456025 12.0380669898 
H 12.0479140616 2.7003588447 10.0606709641 
O 9.5294835534 0.1496137290 9.4811271459 
H 8.9251020390 0.7041331408 8.9265850658 
O 11.0554200659 1.7266985798 11.0430470349 
H 11.6145776393 1.1288063325 11.5986495058 
H 10.4949004138 1.1384055240 10.4777351348 
H 11.6201502150 4.2599343387 8.5165460868 
O 0.1523725785 6.4013902504 12.5659595426 
H 4.2609467768 5.3862352437 8.4972552187 
O 1.7348782647 4.8308428591 11.0393100074 
H 1.1502595108 5.3961381344 11.6023092934 
O 3.2931358232 6.3753833169 9.4922947018 
H 2.6986318043 5.8154204353 10.0519711571 
H 2.6989763845 6.9404792724 8.9388630011 
H 4.2603373216 7.3703353800 10.4903447061 
H 6.9413148198 5.8153780756 12.0473904467 
O 7.9115449735 4.8375276899 11.0485839714 
O 4.8226232647 7.9613514244 11.0500249880 
H 5.3775853623 7.3655052731 11.6118324057 
H 8.5081063137 7.3968372975 8.4998156056 
H 8.4990041897 5.4020575854 10.4867669434 
O 9.4680537276 6.3951089130 9.4953221451 
H 10.0584566535 5.8286733527 8.9398375146 
H 10.0655656535 6.9511074729 10.0558213662 
O 11.0286593185 7.9373363354 11.0420380061 
H 11.6283044897 7.3850919108 11.6042099700 
O 3.2726024930 9.5353539052 12.5933283610 
O 3.2339107300 12.6136681687 9.5036539308 
H 1.1320176246 8.5052026169 8.5102212078 
H 0.7073025529 12.0512052833 12.0360993212 
H 3.8336650926 8.9424554873 12.0344632703 
H 3.8219572494 12.0519436034 8.9402887168 
H 0.7017103001 10.0774896176 10.0535598008 
O 1.6755265865 11.0693340806 11.0495160674 
H 2.2702454651 11.6306852794 10.4908983688 
H 2.2697365957 10.5066089234 11.6055252876 
H 7.3876416639 8.5153429876 8.5023169572 
H 6.9538898540 12.0598355150 12.0329205599 
O 6.4081057360 9.5099255251 9.5001809461 
H 5.8206549994 8.9428285314 10.0573974881 
H 5.8104199206 10.0652513766 8.9408298551 
O 7.9512888080 11.0881207638 11.0450526986 
H 7.3832140405 10.5014758520 10.4864139612 
O 12.5828616191 12.6067160615 12.5965802636 
O 9.4595162885 9.4836314405 12.6008374372 
O 12.6127914264 9.4872565067 9.4937768498 
H 10.0515118665 8.9228500862 12.0410872070 
H 8.9463864650 12.0596727004 10.0423321261 
H 12.0585821646 10.0818535079 8.9310583246 
H 10.4996916967 11.6439380301 8.4813365490 
H 11.6165935296 8.5083816214 10.4884880172 
H 8.5043271302 10.4879622570 11.6040828651 

