&CONTROL
   calculation      = 'vc-relax'
   tstress          = .true.
   tprnfor          = .true.
   outdir           = './'
   pseudo_dir       = '/home/ppiaggi/QuantumEspresso/pseudos'
/
&SYSTEM
   ecutwfc          = 150
   input_dft        = 'SCAN'
   ntyp             = 2
   nat              = 192
   ibrav            = 0
/
&ELECTRONS
   mixing_beta      = 0.5
   startingpot      = 'atomic'
   startingwfc      = 'atomic+random'
/
&IONS
/
&CELL
/

ATOMIC_SPECIES
H 1.0079400002592869 H_ONCV_PBE_sr.upf
O 15.999400004115753 O_ONCV_PBE_sr.upf

K_POINTS gamma

CELL_PARAMETERS angstrom
12.47066915182983 0.00000000000000 0.00000000000000
0.00000000000000 12.42905016300328 0.00000000000000
0.00000000000000 0.00000000000000 12.47863733396050

ATOMIC_POSITIONS angstrom
H 0.7037825295 0.7389522705 0.7035804167 
O 3.2396919235 3.2841431965 0.1520250304 
H 3.8341661606 3.8372091923 0.7169466026 
H 2.6903358954 0.7292340806 2.6819820009 
O 0.1507913560 3.2927795185 3.2314262920 
H 0.7099430354 3.8552209449 3.8245505136 
O 1.6894927948 1.7080866525 1.6921303651 
H 1.1387805405 2.3045006268 2.2575270312 
H 2.2603634195 2.2948082377 1.1363638729 
H 4.2616447332 1.1484410601 4.2465241153 
H 5.3977396852 4.2630233349 2.2795805116 
O 6.4005124525 0.1789762086 0.1442843782 
O 6.4048014158 3.2952924490 3.2840050464 
H 6.9569664825 2.7043922627 2.7145889918 
H 5.8366110429 2.7014693654 3.8341549341 
O 7.9440366997 1.7144228895 1.7324932702 
H 7.3780725927 1.1581999177 1.1414016281 
H 7.3894987020 4.2709298088 4.2806799978 
O 12.5845211754 0.1678424115 0.1507192195 
H 12.0548882152 2.7420732613 3.8256921980 
H 10.0724354051 3.8229712335 0.6896842677 
O 9.4944696488 0.1735489555 3.3076154924 
H 8.9349834308 0.7283034912 2.7094156458 
H 8.5055517557 2.2688501644 1.1364500325 
H 11.6325510812 4.2761976118 2.2536470050 
H 10.4855647729 1.1806651625 4.2783726626 
H 0.7013924947 6.9430577067 0.7040435201 
O 3.2481817145 6.4035314465 3.2530769945 
H 3.8201569618 5.8128719726 2.7039977611 
H 2.6941933690 5.8118469519 3.8206785961 
O 1.6976411197 7.9313867962 1.6719674205 
H 2.2569458484 7.3650096733 2.2606811287 
H 4.2403954255 7.3914218797 4.2465589400 
O 4.8071198468 4.8217715743 1.7171392351 
H 5.4026445690 5.3786980858 1.1562851429 
O 6.3882257956 6.3469977988 0.1594429450 
H 6.9558833848 6.9402558523 0.7099034038 
O 7.9302537218 7.9442680519 1.7033261173 
H 8.5239159041 7.3855033095 2.2636419458 
O 11.0642604038 4.8282524532 1.6600165210 
H 10.5050279102 5.3866225936 2.2561737715 
H 12.0523728738 5.8233530048 0.6980217766 
O 9.5133074770 6.3753587570 3.2270669444 
H 8.9531272841 5.8216053872 3.8253171551 
H 10.0820230930 6.9292522231 3.8173499806 
O 3.2547893757 12.5956230433 3.2671372655 
H 3.8104898145 12.0369466448 2.6682496866 
H 2.7060401724 8.9092221228 0.6949100600 
O 0.1587274088 9.4647409405 3.2864510446 
H 0.7233547100 10.0538206373 3.8458934313 
H 1.1456316824 8.4907446731 2.2718296809 
H 4.2512312271 10.4772406728 1.1226363818 
H 2.2717127706 11.6115801838 4.2601057316 
H 5.8021257414 12.0458871589 0.6962098317 
O 4.8067433246 11.0721436611 1.6851246328 
H 5.3670338718 10.4803409585 2.2456006971 
O 6.3418742231 9.4902634127 3.2445944140 
H 6.9376123244 8.9298204928 2.6883743493 
H 6.9354928096 10.0432374384 3.8111861157 
H 5.3640760386 8.5063951562 4.2376229513 
H 8.5213869195 8.5097227926 1.1480160012 
H 8.4912684924 11.5938421734 4.2601786460 
H 10.0604270883 12.0433479964 2.7184960958 
H 12.0675957637 10.0613602661 2.7330133848 
O 9.5218251127 9.5123644321 0.1780949068 
O 11.0588578329 11.0546551223 1.7595953457 
H 10.5014452363 10.4983655338 1.1603927660 
H 11.6196630805 11.6143357523 1.1671125324 
H 11.6453140578 8.4866344705 4.2736590161 
H 2.2690871643 4.2563792121 5.3778002659 
O 0.1755040987 0.1809173882 6.3709342810 
O 3.2666343086 3.2609078754 6.3376269612 
H 3.8188840472 3.8271648184 6.9331947476 
H 2.7026836973 2.7060578995 6.9319184358 
O 1.7410470124 1.7092453508 7.9385002637 
H 1.1445087502 1.1577317916 7.3736691461 
H 4.2566208290 2.2613332066 5.3720188741 
O 4.8521377219 1.7012398213 4.8151036209 
H 5.8135818488 0.7022172972 5.8169298631 
O 7.9375991799 1.7430592524 7.9337670670 
H 7.3789704941 1.1492570509 7.3741312737 
O 11.0832373146 1.7426023963 4.8315332813 
H 10.4944443654 2.3028872979 5.3956791256 
H 12.0524512552 0.7465036628 5.8166223449 
O 9.5334531528 3.2981872546 6.3987373403 
H 8.9379767093 2.7307865617 6.9481979847 
H 8.9400177214 3.8564672817 5.8361372255 
H 10.4993656691 4.2791982451 7.3955197318 
O 1.7072983833 4.8250973479 4.7943614958 
H 1.1515382853 5.3783759411 5.3993046391 
O 0.1693911376 6.3633638760 6.3693594065 
H 0.7233474657 6.9318579956 6.9594112606 
O 1.7060716448 7.9221122880 7.9495969092 
O 7.9770290690 4.8421403293 4.8352872944 
H 7.3767869104 5.3990831080 5.3904249271 
O 4.7993148779 7.9558042745 4.8355436889 
O 4.8054612727 4.8231816586 7.8948937778 
O 6.3880580431 6.3895604458 6.3707532043 
H 5.7995236209 6.9506783506 5.8088563266 
H 5.7926547884 5.8259045323 6.9245504922 
O 7.9308566674 7.9362223044 7.9644129176 
H 7.3637438060 7.3805042574 7.3749685506 
O 11.0501344601 7.9164605056 4.8214581234 
H 11.6395605707 7.3616148067 5.3886761017 
O 11.0966652365 4.8318890216 7.9587043546 
H 12.0755837479 5.8104232906 6.9655831596 
H 2.2690983412 8.5140989581 7.3912724801 
O 1.7196493371 11.0276044249 4.8368059197 
H 1.1519594840 11.6261584796 5.3835487788 
O 3.2698118198 9.4943966942 6.4242012034 
H 3.8271135447 8.9430820968 5.8198687348 
H 2.7142204821 10.0667132323 5.8386182287 
H 4.2676353905 10.4740434632 7.3933023851 
O 6.3763028423 12.5761568953 6.4117754068 
O 7.8999331140 11.0266950660 4.8150939126 
H 6.9340293733 12.0133709091 5.8191057248 
O 4.8310692986 11.0323797048 7.9864613783 
H 5.3907831846 11.5888690674 7.3884985707 
H 8.4989208167 10.4654112189 5.3681789619 
H 12.0517176175 12.0496502132 6.9291863369 
O 9.4702007973 9.4793644030 6.3602742827 
H 10.0631499899 10.0426506350 6.9170803711 
H 10.0652961750 8.9172251352 5.8053179280 
H 8.4902701693 8.4909208354 7.3670732168 
O 11.0523223317 11.0468405451 7.8921113053 
H 3.8303727837 2.7244448358 12.0680983700 
H 2.7188333329 0.7187626358 8.9362794881 
O 0.1629811274 3.2381826213 9.4993820872 
H 0.7158794202 3.8309502095 10.0669403655 
H 1.1523357063 2.2740163175 8.4985334735 
H 4.2601353180 1.1630146675 10.4921133669 
H 2.2571977391 4.2805567939 11.6381977355 
H 5.3701072976 4.2681212972 8.4883039052 
H 5.8122522264 0.7386365227 12.0576507579 
O 4.8129131926 1.7305853380 11.0861592913 
H 5.3741409493 2.2874700884 10.4927887711 
O 6.3467860557 3.2829487779 9.4820196102 
H 6.9374440101 2.7154427461 8.9282589092 
H 6.9407880343 3.8317536854 10.0517521493 
O 9.4779373774 3.2630855797 12.6105945239 
H 10.0689951564 2.6999736377 12.0520033206 
H 12.0695728857 3.8319647771 8.9446324939 
H 10.0658654659 0.7128031050 10.0599349260 
H 8.4986872975 1.1527594407 8.4945073266 
O 11.0348672027 1.7030617870 11.0560380381 
H 11.6333322070 2.2618405636 10.5017913815 
H 11.6243104779 1.1469251037 11.6252990303 
H 8.5008495751 4.2523383339 11.6244865671 
H 4.2418256833 5.3782428336 8.4891170053 
O 1.6946903793 4.8312013583 11.0400536648 
H 1.1307635565 5.3947531281 11.6268054913 
O 3.2823005672 6.3709452539 9.4939162539 
H 2.6856566989 5.8193921262 10.0581038487 
H 2.6936540702 6.9425377005 8.9414599895 
H 4.2726890285 7.3635627386 10.4953312643 
H 5.8337119833 6.9373790864 12.0703132187 
O 7.9318476228 4.8087328219 11.0364872177 
H 7.3801612610 5.3713673211 11.6335359588 
O 4.8367802835 7.9170862881 11.0887979192 
O 12.6108749059 6.3881227770 12.5854978603 
H 10.5053267298 5.3935724205 8.5177825730 
O 9.5155774698 6.3820034450 9.5055954381 
H 8.9269055894 5.8149192543 10.0620630223 
H 8.9193656191 6.9339363437 8.9416200688 
O 11.0633961694 7.9734400997 11.0508692723 
H 10.4934902364 7.3835894480 10.4995126947 
H 11.6188930533 7.3796409393 11.6145385760 
O 3.2660174895 9.5001042718 12.6117125555 
O 3.2801283539 12.5953647614 9.5350019354 
H 1.1420793162 8.5131649540 8.5054711675 
H 0.7103174983 12.0396672726 12.0696996264 
H 3.8314373186 8.9087790282 12.0557473165 
H 3.8415730186 12.0317043113 8.9462332955 
H 0.6951881980 10.0748501883 10.0676937046 
O 1.6816603938 11.0568019450 11.0778980447 
H 2.2792231283 11.6086727565 10.5152794877 
H 2.2691196192 10.4826145282 11.6284161029 
H 5.3919574073 8.4840333769 10.4964495818 
O 6.3816393917 9.4829859031 9.5448661154 
H 5.8186328270 10.0426230055 8.9532337580 
H 6.9402106056 8.9271594070 8.9468945930 
O 7.9663893099 11.0436375086 11.0769690426 
H 7.3730180376 10.4826291337 10.5187601605 
H 7.3745669163 11.6095596173 11.6312091443 
H 11.6138541501 10.4945194515 8.4913457506 
H 10.4893768614 11.6052727646 8.4836815859 
O 9.4986709938 12.5887230481 9.4671977591 
O 12.6044994814 9.5197490374 9.4725889663 
H 10.0762433272 8.9511732925 12.0605053478 
H 8.9515891671 10.0647066564 12.0658332142 
H 8.9418724461 12.0293638942 10.0626383833 
H 12.0486474657 8.9535513661 10.0641807719 

