&CONTROL
   calculation      = 'vc-relax'
   tstress          = .true.
   tprnfor          = .true.
   outdir           = './'
   pseudo_dir       = '/home/ppiaggi/QuantumEspresso/pseudos'
/
&SYSTEM
   ecutwfc          = 150
   input_dft        = 'SCAN'
   ntyp             = 2
   nat              = 192
   ibrav            = 0
/
&ELECTRONS
   mixing_beta      = 0.5
   startingpot      = 'atomic'
   startingwfc      = 'atomic+random'
/
&IONS
/
&CELL
/

ATOMIC_SPECIES
H 1.0079400002592869 H_ONCV_PBE_sr.upf
O 15.999400004115753 O_ONCV_PBE_sr.upf

K_POINTS gamma

CELL_PARAMETERS angstrom
12.47920470637830 0.00000000000000 0.00000000000000
0.00000000000000 12.47403493748305 0.00000000000000
0.00000000000000 0.00000000000000 12.44770229096356

ATOMIC_POSITIONS angstrom
H 0.7092386983 0.7075936214 0.7269765872 
O 3.2215443104 3.2706334605 0.1617186494 
H 3.8221644080 3.8245537706 0.7203285096 
H 2.6978244183 0.6932893647 2.7095812969 
O 0.1485629031 3.2337903076 3.2803663404 
H 0.7098903099 3.8264323968 3.8385123476 
O 1.6922361993 1.6764812872 1.7210060049 
H 1.1341932939 2.2710844506 2.2817089913 
H 2.2518998716 2.2696899974 1.1610372922 
H 4.2624454194 1.1233630765 4.2756166014 
H 5.3840127800 4.2571195454 2.2637275060 
H 6.9361502088 0.7033782382 0.7066676323 
O 6.3774719101 3.2612771527 3.2347667377 
H 5.8225894665 2.6961417127 3.8256744339 
H 6.9424921227 3.8140730476 3.8315542561 
O 7.9358844028 1.7098514336 1.6727066420 
H 7.3765932092 2.2728367650 2.2631741934 
H 12.0708060500 3.8281730697 2.7186613288 
H 8.9473214799 2.7034257426 0.7099199415 
O 9.4909477221 0.1658167538 3.2376426414 
H 10.0543072397 0.7196765299 3.8316097264 
H 8.4945529898 1.1532004096 2.2702858513 
H 10.5161068209 4.2554186700 1.1474361145 
H 11.6318857595 2.2637553023 4.2839474328 
H 2.2680064992 5.3847741566 4.2754000792 
O 0.1480958892 6.4164919001 0.1614418010 
O 3.2564648146 6.3863460018 3.2909111375 
H 3.8132643427 5.8240329992 2.6990485632 
H 2.7000231107 6.9501852268 2.6986447198 
O 1.7369264858 7.9558462161 1.7056264403 
H 1.1462220339 7.3916324193 1.1470897885 
H 4.2464719808 7.3778019241 4.2717130022 
O 4.7921533353 4.8150558612 1.7010396362 
H 5.3872115875 5.3758929716 1.1454541972 
H 6.9507475399 6.9463963426 0.7179023670 
O 7.9347950928 7.9109060894 1.7175390500 
O 11.1020852618 4.8169190120 1.7123595821 
H 10.4996126770 5.3731554917 2.2661962315 
H 12.0695056225 5.8217821355 0.7213303803 
O 9.5214633727 6.3580417190 3.2506873607 
H 8.9251336286 6.9234237767 2.7002504606 
H 8.9322218154 5.7985351015 3.8140815955 
H 10.4956077722 7.3716046674 4.2537345516 
O 3.2565201087 12.6059095629 3.3013783311 
O 0.1556718180 12.5843800340 0.1640559104 
H 3.8174998266 12.0482124410 2.7069332619 
H 2.7047679696 8.9345986299 0.7126870958 
O 0.1676512400 9.4998161692 3.2595505452 
H 1.1389165923 8.5138824097 2.2622572299 
H 4.2624523917 10.4907690266 1.1539520894 
H 2.2614505676 11.6174244807 4.2563901706 
H 1.1388095357 10.4993156237 4.2620627350 
H 7.3738979923 8.4981738564 2.2814294643 
O 4.8205090590 11.0542700950 1.7454465328 
H 5.3767181839 11.6143831168 1.1494858842 
O 6.4042366824 9.4951481519 3.2905153212 
H 5.8108782798 10.0503426562 2.7275592549 
H 5.8120301874 8.9318680977 3.8470612802 
H 7.3895508276 10.4970746306 4.2793026831 
H 8.4931840647 8.5082816022 1.1607256542 
H 8.9395362163 12.0715619324 3.8306164267 
H 12.0495890873 8.9385162933 3.8132881324 
H 12.0575646846 10.0640653964 2.7011155109 
O 9.4662406192 9.4982195918 0.1618542429 
H 10.0582914632 10.0674234368 0.7126926970 
O 11.0586402819 11.0432735935 1.7029089999 
H 11.6289398676 11.6325865751 1.1484262536 
H 10.5013428655 11.6387246869 2.2606976765 
H 2.2772265964 4.2647067265 5.3947277967 
O 0.1513925008 0.1699839454 6.3926201149 
O 3.2415979648 3.2667365654 6.3818634355 
H 3.8369320063 3.8268142762 6.9376870421 
H 3.8321273979 2.7018817167 5.8241702127 
O 1.6944957849 1.7202290365 7.9716104996 
H 1.1418902702 1.1500569296 7.3817358748 
H 2.2597478943 2.2725996101 7.3776377456 
O 4.8186856278 1.7206561502 4.8331444484 
H 5.3891995886 1.1347083424 5.3888853443 
H 6.9583979720 0.7061538085 6.9472471047 
O 7.9470350480 1.6814440372 7.9443558851 
O 11.0358454566 1.7064521996 4.8423480305 
H 11.6268624783 1.1429658839 5.3998555443 
H 8.5002818619 4.2478751767 5.3821460016 
O 9.4767934114 3.2671722356 6.3803588244 
H 10.0634621694 3.8314333406 6.9415417078 
H 10.0769162771 2.7041926620 5.8303211131 
H 8.5073644372 2.2711409319 7.3823238740 
O 1.6800639793 4.8251453623 4.8395143195 
H 0.6931956999 5.8207348908 5.8208369606 
O 1.6924730302 7.9453767846 7.9627659578 
H 1.1313311505 7.3892130779 7.3692065151 
O 7.9324388441 4.8005254327 4.7898522868 
H 7.3802762407 5.3684196414 5.3823898585 
O 4.8406746203 7.9287771900 4.8387385583 
O 4.8336596719 4.8048462812 7.9421672963 
H 5.3950717206 5.3942810048 7.3796785870 
O 6.3946391080 6.3479275838 6.3774890387 
H 5.8243860086 6.9384381510 5.8258011735 
H 6.9522114466 6.9438086696 6.9363849118 
O 7.9491140144 7.9470049738 7.8994166747 
O 12.6027595076 6.4166883853 6.3673430084 
O 11.0592616941 7.9634887317 4.8090106016 
H 11.6144157383 7.3675576559 5.3725171141 
O 11.0575662881 4.8355610543 7.9157607663 
H 12.0481816850 5.8257391690 6.9344602707 
O 1.7030567290 11.0572314476 4.8515575706 
H 0.7107415360 12.0544309613 5.8288344386 
O 3.2493471782 9.4739161613 6.3885122607 
H 3.8146117669 10.0702410648 6.9389156874 
H 2.6937171248 10.0639561676 5.8211222391 
H 2.2527296276 8.5083831317 7.3724980729 
H 4.2486292339 8.4931466137 5.3942001049 
O 6.3684606812 12.6185550090 6.3862089089 
O 7.9580347119 11.0901562176 4.8289538668 
H 6.9637254054 12.0581517946 5.8293582193 
O 4.7923915788 11.0667071052 7.9259436238 
H 5.3866461666 11.6300199157 7.3708963422 
H 8.5212985349 10.4962957441 5.3850997420 
H 12.0681140034 12.0464631729 6.9454761285 
O 9.5172791960 9.5276664231 6.3677900711 
H 8.9549379903 8.9369922579 6.9278665348 
H 10.0730579218 8.9310585278 5.8065980265 
O 11.0633565605 11.0865139365 7.9314204900 
H 10.5109592354 10.4919041210 7.3655680155 
H 3.8073603972 2.7027850604 12.0504341221 
O 3.2459327569 0.1459325914 9.5133215795 
H 2.6867824846 0.7122138632 8.9255253092 
O 0.1458422038 3.3005554422 9.5099513717 
H 0.7013127747 2.7072628111 8.9458668201 
H 4.2423487649 1.1394282116 10.4899201399 
H 2.2541610022 4.2742026981 11.6151761750 
H 1.1342005211 4.2703805817 10.4977043717 
O 4.7995123084 1.7298146161 11.0540816225 
H 5.3649622549 1.1352139335 11.6063552219 
O 6.4075364877 3.2667587026 9.5038542602 
H 5.8096444555 2.7092752158 10.0594782220 
H 5.8184040549 3.8315358214 8.9451360517 
H 7.3874878832 2.2758786585 8.5017899675 
H 7.3797489690 4.2550862243 10.4978226871 
O 9.5437172691 3.2597014403 12.5975061375 
H 11.6176653485 4.2740250332 8.5054875750 
H 12.0715123933 0.7025298491 12.0543313522 
H 8.9487802299 3.8213456983 12.0402097940 
H 12.0625391202 2.7074198866 10.0666040668 
H 8.9459994322 0.7057788855 8.9383425604 
O 11.0975421712 1.6982664063 11.0600193943 
H 10.5073582402 1.1399999883 10.4965658714 
H 10.5009041827 2.2612721995 11.6143531491 
H 0.7059688313 5.8245454561 12.0443982230 
H 4.2725916775 5.4007684049 8.4958180544 
O 1.6944682732 4.8665923093 11.0546778573 
O 3.2900921843 6.4013156294 9.5017106840 
H 2.6984395308 6.9575128129 8.9375116875 
H 2.6936887366 5.8407217962 10.0568157556 
H 4.2651328966 7.3827113158 10.4930453154 
O 6.3963955472 6.3502575530 12.6031958926 
H 5.8355599223 6.9412091558 12.0416289234 
O 7.9793490170 4.8126351143 11.0533323189 
H 7.3903544693 5.3763427177 11.6143026846 
O 4.8656841183 7.9385351991 11.0492443419 
H 10.4949464232 5.3907268817 8.5108380049 
H 8.5069008800 7.3882663684 8.4952618428 
O 9.4977112913 6.3865849136 9.4633362718 
H 10.0525948174 6.9488745018 10.0584388027 
H 8.9399197047 5.8242257920 10.0558972191 
O 11.0256280437 7.9499467172 11.0599215132 
H 11.6180634941 7.3874315097 11.6172624428 
O 3.3030810636 9.4906167088 12.6008480511 
H 2.7118971395 10.0541236812 12.0423217747 
H 3.8079981781 12.0671612896 8.9166482071 
H 0.7010605050 8.9350656112 8.9449319788 
H 0.7068280054 10.0522786576 10.0651715222 
O 1.7073485339 11.0266079694 11.0579843689 
H 2.2601567559 11.6197863711 10.4921970052 
H 1.1496429214 11.6192626202 11.6207531448 
H 4.2771370721 8.4992461899 11.6132863187 
O 6.3445140403 12.6151807072 12.5962304155 
H 7.3869603843 8.5067060648 8.4910818617 
H 6.9403560283 12.0536298966 12.0409778441 
H 5.3857753062 10.5093798222 8.4861084173 
O 6.3870976963 9.4984192158 9.4561035839 
H 5.8330293751 8.9335986912 10.0501838065 
H 6.9492090564 10.0541096380 10.0499860616 
O 7.9144489445 11.0577944229 11.0581359109 
O 9.5074594921 12.6151339269 9.5240438872 
H 8.5102192223 11.6158659507 10.5000796347 
H 8.5062075302 10.4943056541 11.6169445187 
H 10.0620303034 8.9419844496 12.0477251916 
H 10.0637885554 12.0575989648 8.9264384815 
O 12.5893606192 9.4915021970 9.5103276377 
H 11.6188627167 10.4934917852 8.4939230040 
H 11.6233312848 8.5067150774 10.5007423168 

