&CONTROL
   calculation      = 'vc-relax'
   tstress          = .true.
   tprnfor          = .true.
   outdir           = './'
   pseudo_dir       = '/home/ppiaggi/QuantumEspresso/pseudos'
/
&SYSTEM
   ecutwfc          = 150
   input_dft        = 'SCAN'
   ntyp             = 2
   nat              = 192
   ibrav            = 0
/
&ELECTRONS
   mixing_beta      = 0.5
   startingpot      = 'atomic'
   startingwfc      = 'atomic+random'
/
&IONS
/
&CELL
/

ATOMIC_SPECIES
H 1.0079400002592869 H_ONCV_PBE_sr.upf
O 15.999400004115753 O_ONCV_PBE_sr.upf

K_POINTS gamma

CELL_PARAMETERS angstrom
12.47705434206888 0.00000000000000 0.00000000000000
0.00000000000000 12.46751651711026 0.00000000000000
0.00000000000000 0.00000000000000 12.45311392729811

ATOMIC_POSITIONS angstrom
H 2.6997212886 2.6862948121 0.7030011342 
O 3.2960893431 0.1573689342 3.2628233322 
H 2.7070478514 0.7146168624 2.6971668368 
O 0.1492470161 3.2764604606 3.2230871830 
H 0.7125354006 3.8310819538 3.8164960596 
O 1.7308957525 1.7005013846 1.6911185859 
H 1.1407782672 2.2636059333 2.2507494931 
H 1.1330815823 1.1348058513 1.1408885178 
H 4.2797489503 4.2351047072 1.1545844850 
H 4.2618317308 1.1517156311 4.2669135051 
O 6.3725988633 3.2449724825 3.2854984751 
H 6.9616708055 2.6864372639 2.7203537736 
H 6.9682326865 3.8105185754 3.8359390140 
O 7.9486171170 1.6915486255 1.7376026920 
H 7.3798130687 1.1432687572 1.1433913328 
H 5.3961930875 4.2406467433 2.2768114676 
H 5.3902433039 2.2622398286 4.2765833015 
H 12.0740071974 2.7077167615 3.8152130955 
H 10.0578603992 3.8251053740 0.7063348873 
H 8.9313427212 0.7015384324 2.7129809800 
H 8.5014812540 2.2606406542 1.1465673664 
H 11.6278585184 4.2628573994 2.2581159076 
H 10.5112109405 1.1475924459 4.2567152201 
O 9.4880941822 3.2317070241 0.1559218562 
H 2.2766907495 5.3889918571 4.2655523115 
O 0.1433351687 6.3591701268 0.1560286854 
H 0.7005312638 6.9495856889 0.7212213240 
O 3.2427584683 6.3754824376 3.2624657643 
H 3.8374057800 5.8154691739 2.7056516797 
H 3.8343641304 6.9422113890 3.8168753029 
O 1.6645791720 7.9399636583 1.7282114079 
H 2.2599177150 7.3750060237 2.2800314885 
O 4.8374208705 4.8301354858 1.7136493624 
O 6.3896715852 6.4063990187 0.1711470336 
H 5.8337310320 5.8036233662 0.7238922858 
O 7.9544901200 7.9466197115 1.7375971939 
H 7.3927326381 7.3816732227 1.1510945085 
O 11.0294418780 4.8130679093 1.6944448438 
H 11.6180294070 5.3821152433 1.1395941991 
H 8.5099458359 5.3876713240 4.2585561115 
O 9.4976498258 6.3800647291 3.2816485884 
H 10.0571474048 5.8195892760 2.6895246616 
H 8.9437878446 6.9466434762 2.6881942570 
H 10.4872401627 7.3717778462 4.2677403924 
H 2.6942640566 12.0713671623 3.8200940598 
O 3.2281291240 9.4877032471 0.1654676702 
H 3.8213630103 10.0504181264 0.7218603376 
H 0.6861889836 8.9326459045 2.7329030968 
H 2.2586241325 8.4975436778 1.1673284171 
H 4.2646129927 11.6217121934 2.2739124544 
H 1.1220253934 10.5210461432 4.2653041860 
H 5.3894923247 8.5136832943 4.2552207915 
H 5.8097257385 12.0634323248 0.6968836373 
O 4.8241877465 11.0615727468 1.6811364207 
H 5.3887654945 10.5053550475 2.2719563535 
O 6.3681879623 9.5106982850 3.2671721040 
H 6.9637002090 8.9508624715 2.7110153302 
H 6.9561833620 10.0675660791 3.8339258489 
O 9.5283826090 12.6153325442 3.2751642516 
O 12.5987641647 9.5280113651 3.2847219968 
H 12.0552864257 12.0486524838 0.7238117980 
H 8.9403175113 12.0579796536 3.8414032470 
H 12.0403119878 8.9372199033 3.8478379861 
H 10.0604790023 10.0742667052 0.6987344999 
H 8.5102138461 8.5036838336 1.1390088368 
O 11.0616445807 11.0601559935 1.6892823854 
H 10.4967982956 11.6192820914 2.2777300346 
H 11.6121988079 10.4956693130 2.2863359563 
H 2.2650444202 4.2727405467 5.3873217391 
H 0.7019535685 0.7198276136 6.9538752766 
O 3.2625257846 3.2947219675 6.3945652113 
H 2.7053375494 2.6987793158 6.9530521618 
H 3.8262132777 2.7048131799 5.8352523258 
O 1.7004470393 1.7012012577 7.9249674959 
H 4.2556877831 4.2717670526 7.3839817905 
O 4.8221207245 1.7058969847 4.8645509920 
H 5.8152300870 0.7094873861 5.8379852069 
H 6.9367781007 0.7137265807 6.9541404332 
O 7.9159535018 1.7149802013 7.9403471043 
O 12.6187265211 0.1673646079 6.3542785485 
H 8.5080471923 2.2700488724 7.3757735227 
O 11.0785156599 1.7433140341 4.8055374106 
H 11.6314724986 1.1529147969 5.3753798277 
O 9.5122625224 3.2670676363 6.4038907997 
H 8.9537842926 3.8291782950 5.8109005219 
H 10.0745474233 2.7107497937 5.8107422854 
H 10.4970008458 4.2581025381 7.3734138998 
O 1.6778698433 4.8337842023 4.8240056556 
H 0.7001386069 6.9447907258 6.9308018971 
H 0.7049183615 5.8223834194 5.8135811048 
O 1.6945658379 7.9509847958 7.8906154661 
O 7.9572301995 4.7975213195 4.8283673579 
H 7.3943204671 5.3920653548 5.3819372671 
O 4.8257493228 7.9223572740 4.8124454120 
O 4.8156818848 4.8696601044 7.9382620758 
O 6.4117428908 6.3889329207 6.3796901805 
H 5.8230975757 6.9547739970 5.8223370889 
H 5.8138015691 5.8354155231 6.9405618858 
O 7.9667830926 7.9293427568 7.9500101889 
H 7.3753389717 7.3759005203 7.3813952180 
O 11.0387737228 7.9633276521 4.8370557119 
H 11.6072933167 7.3673520570 5.3864035288 
O 11.0537071186 4.8178758059 7.9703571099 
H 11.6148493886 5.3773232695 7.3790707997 
O 12.5865045436 6.3801431301 6.3732591180 
H 4.2602964617 8.5171711721 5.3643720548 
O 1.7203940278 11.0878802141 4.8118426548 
H 1.1313439427 11.6462964365 5.3782805840 
O 3.2813689520 9.5113309634 6.3529328901 
H 2.6921332280 10.0811290130 5.8002579736 
H 2.6843832064 8.9533851724 6.9101699743 
H 4.2637873662 10.4849862341 7.3699725170 
O 7.9465317856 11.0606294434 4.8199967290 
H 7.3813436763 11.6161702447 5.4110561397 
O 6.3706728235 12.5858261800 6.4038653519 
O 4.8261987146 11.0306478088 7.9723278083 
H 5.3838384036 11.6024969657 7.3889715025 
H 8.5088377545 10.5034288611 5.4126680944 
H 12.0614835721 12.0647565000 6.9403194341 
O 9.5127296374 9.5288210148 6.4002909170 
H 8.9473098822 8.9403838194 6.9581410336 
H 10.0604416124 8.9272900543 5.8362821356 
O 11.0733987708 11.0886653683 7.9318590924 
H 10.5125142292 10.4879639802 7.3800475390 
O 3.2956437995 3.2479016379 12.6002205185 
H 2.2600174920 1.1336984055 8.5101483180 
H 1.1446126989 2.2567071262 8.5245849006 
H 2.7029488820 3.8150354704 12.0491214519 
H 0.6930127566 3.8306244546 10.0778051840 
H 4.2612653213 1.1394978082 10.4847200819 
H 4.2510368153 2.2617718286 11.6009206435 
O 3.2601803936 0.1513683072 9.4994164043 
O 6.4034268904 0.1551118074 12.5908456008 
H 5.8119716313 0.7174815481 12.0311592779 
O 4.8499244562 1.7103935162 11.0371857764 
O 6.3763439428 3.3073053488 9.4853390317 
H 6.9381761166 2.7155136296 8.9265978794 
H 5.8139416286 2.7127381522 10.0406287511 
H 7.3806460529 4.2764915999 10.4835385134 
H 5.3781091042 4.2781663940 8.4976522651 
O 12.6116816452 3.2305537713 9.5226581525 
H 8.5115768429 1.1525572634 8.4949868265 
H 12.0488921364 0.6983712117 12.0553267147 
H 8.9356047647 3.8264076621 12.0437221534 
H 12.0519591105 3.8186119492 8.9588488122 
O 9.4754145693 0.1522943060 9.4836502039 
H 10.0667012365 0.7083466741 10.0496009087 
O 11.0535604069 1.6682347579 11.0623283102 
H 11.6146573033 2.2676716577 10.5094268095 
H 10.4876350930 2.2579142256 11.6194497101 
H 2.2583065233 7.3958591098 8.4833954537 
O 1.6922677819 4.8007268272 11.0559544086 
H 1.1338140545 5.3942857670 11.6177258988 
H 2.2488874255 5.3948623822 10.4949200161 
O 3.2247585454 6.4002426091 9.4959822225 
H 3.8201134116 5.8384764034 8.9409694205 
H 3.8156367440 6.9535154914 10.0639120017 
H 6.9491539875 5.8219936973 12.0548769417 
O 7.9433892917 4.8327047780 11.0763590308 
O 4.7904836328 7.9366212807 11.0706724190 
H 5.3816755049 7.3743870862 11.6295636806 
H 12.0610733804 6.9535186048 12.0495124372 
H 8.5109455792 5.3874173499 10.4845550586 
O 9.5090820681 6.3749211581 9.5291340867 
H 8.9418740669 6.9299708805 8.9387258141 
H 10.0627081294 5.8120112990 8.9320711569 
O 11.0924521052 7.9385247781 11.0512435708 
H 10.4997362489 7.3785471206 10.4912801711 
O 0.1689533037 12.6026509708 12.6077249673 
H 1.1390297958 8.5120899219 8.4871520859 
H 3.8243024866 8.9254423519 12.0633746763 
H 3.8212751518 12.0228254365 8.9449642239 
H 2.6985626942 12.0305189098 10.0624551699 
O 0.1571547471 9.4973666269 9.4636530877 
H 0.7137581041 10.0543582224 10.0642972174 
O 1.6966304238 11.0419392978 11.0292224379 
H 1.1357660145 11.6028363381 11.6206925159 
H 2.2560783486 10.4815169926 11.6217674298 
H 5.3880069844 8.4950261192 10.5132687217 
O 6.3853057800 9.4570797295 9.5165869297 
H 6.9463809706 10.0590270374 10.0658156436 
H 5.8229864117 10.0413660170 8.9503310249 
H 7.3728175246 8.4866820427 8.5110884306 
O 7.9395004772 11.0358080543 11.0448092260 
H 7.3776944284 11.6292285763 11.6031039093 
O 9.5025641278 9.4832606274 12.5889835692 
H 8.9382808806 10.0778503786 12.0344758380 
H 10.0715042118 12.0607871206 8.9265753734 
H 12.0693010110 8.9371529866 10.0509311183 
H 11.6369827176 10.5028856163 8.4946406377 
H 10.5011637497 8.5100232553 11.6004690719 
H 8.4994698404 11.6280359902 10.4845776792 

