&CONTROL
   calculation      = 'vc-relax'
   tstress          = .true.
   tprnfor          = .true.
   outdir           = './'
   pseudo_dir       = '/home/ppiaggi/QuantumEspresso/pseudos'
/
&SYSTEM
   ecutwfc          = 150
   input_dft        = 'SCAN'
   ntyp             = 2
   nat              = 192
   ibrav            = 0
/
&ELECTRONS
   mixing_beta      = 0.5
   startingpot      = 'atomic'
   startingwfc      = 'atomic+random'
/
&IONS
/
&CELL
/

ATOMIC_SPECIES
H 1.0079400002592869 H_ONCV_PBE_sr.upf
O 15.999400004115753 O_ONCV_PBE_sr.upf

K_POINTS gamma

CELL_PARAMETERS angstrom
12.47250279635067 0.00000000000000 0.00000000000000
0.00000000000000 12.47985135413807 0.00000000000000
0.00000000000000 0.00000000000000 12.44914404587004

ATOMIC_POSITIONS angstrom
H 0.7122776473 0.6850952416 0.7265307197 
H 3.8171231718 3.8064165182 0.7145757506 
O 3.3092487039 0.1531420501 3.2676489943 
H 2.7160958347 0.7152369637 2.7097544429 
O 0.1775723682 3.2515865448 3.2596853924 
O 1.7135984528 1.6646476393 1.7077306758 
H 2.2654188520 2.2583891284 1.1396919718 
H 1.1489347140 2.2580726089 2.2627280351 
H 4.2696288158 1.1555892210 4.2691537561 
H 1.1461911869 4.2442296785 4.2632117005 
H 5.3831002902 4.2599871569 2.2883563848 
O 6.3890843094 0.1628521653 0.1713661346 
O 6.3940276220 3.3032910866 3.2779001053 
H 5.8346737216 2.7124642944 3.8397131914 
H 6.9491597016 2.7072947161 2.7154435704 
O 7.9325068087 1.7434322578 1.7209534398 
H 7.3741138117 1.1596756608 1.1501508992 
H 7.3921581665 4.2767035151 4.2594521079 
H 12.0500857167 2.6935262555 3.8131240910 
H 12.0631086728 3.8202396835 2.7015715869 
O 9.5291765695 3.2802426761 0.1810851370 
H 8.9347176590 2.7163299942 0.7357448594 
O 9.4710587714 0.1582016257 3.2552385200 
H 8.4873099755 1.1379034669 2.2732208629 
H 10.4988385696 4.2676151142 1.1637195056 
H 10.4773277773 1.1427149101 4.2538731878 
H 4.2530689249 5.3689010077 2.2837440297 
O 3.2500399211 6.3492276838 3.2790377395 
H 2.6985706005 6.9417087167 2.7116764152 
H 3.8156154119 6.9421601077 3.8318259612 
O 1.7084403237 7.9464002589 1.7384722722 
H 1.1483482548 7.3895396948 1.1436284296 
H 2.2599155909 5.3705999020 4.2624464756 
O 4.8143456051 4.8088436017 1.6932263223 
H 5.8080356731 5.8083685889 0.7159366672 
O 7.9647043401 7.9333244145 1.7048556554 
H 7.3701175372 7.3709615688 1.1501627648 
O 11.1021543458 4.8258386567 1.7159325529 
H 10.5149387095 5.3885563080 2.2788661327 
H 12.0558507944 5.8227240662 0.7159898260 
O 9.5134426861 6.3693821554 3.2683010267 
H 8.9479774466 6.9511849888 2.7029726577 
H 10.0665509477 6.9696466868 3.8258262610 
H 8.5138151337 5.3954804369 4.2621120777 
H 2.7153277985 12.0773962043 3.8301349445 
O 3.2487373368 9.5090364294 0.1656496637 
H 3.8387877222 10.0704022969 0.7254951736 
H 0.7245579102 10.0678602238 3.8302892797 
H 0.7192887460 8.9431006303 2.7144657762 
H 2.2698472106 8.5090406028 1.1497205204 
H 4.2818846917 11.6426071010 2.2784844708 
O 4.8430030999 11.0445990656 1.7246537930 
H 5.3986611193 11.6335469994 1.1581636413 
H 5.3823839502 8.5017063274 4.2653706065 
O 6.3804915039 9.4625565054 3.2620755638 
H 5.8245752956 10.0651521598 2.7081610615 
H 6.9405677151 10.0490511052 3.8289818710 
H 7.3731760927 8.4936921434 2.2661627101 
O 12.6155870424 12.5777297696 0.1701189858 
H 10.0374938203 12.0405052685 2.7074892714 
H 8.9138423198 12.0480561314 3.8204766916 
O 12.6017607534 9.5030187007 3.2773838845 
H 8.9359635480 8.9354492219 0.7143560617 
H 10.0610972843 10.0507512284 0.7288009455 
O 11.0251415573 11.0426228209 1.7261126231 
H 11.6186220936 11.6031365031 1.1679917173 
H 11.6200213029 10.4869745891 2.2881730560 
H 11.6344627868 8.5182100890 4.2760414075 
O 0.1679169255 0.1507049944 6.3632543201 
O 3.3046464376 3.2715781067 6.3884287082 
H 2.7143216157 2.7043815674 6.9440415410 
H 2.7065340716 3.8201145111 5.8218871527 
O 1.7089766887 1.7349098923 7.9297650335 
H 1.1452294517 1.1528241222 7.3639383917 
H 4.2673966088 2.2707417132 5.3916504706 
H 4.2736557806 4.2746623462 7.3809490703 
O 4.8625306460 1.7111356799 4.8334682380 
H 5.8194527631 0.6993561269 5.8275034799 
H 6.9442767460 0.6877384667 6.9397121793 
O 7.9204535239 1.6857294337 7.9234739160 
H 8.5085167826 2.2545910147 7.3678662455 
O 11.0763289114 1.6993016622 4.8091055001 
H 10.4867042643 2.2612274380 5.3711272333 
H 12.0418760148 0.7051485126 5.8044578305 
O 9.5008330367 3.2325691316 6.3755805711 
H 8.9442950805 3.8310252004 5.8186596777 
H 10.0611957455 3.8196806024 6.9409620148 
O 1.7082272591 4.8024314231 4.8553270007 
H 0.7044469552 5.8028697389 5.8254375006 
O 1.6980322971 7.9429562182 7.9672408097 
H 1.1450666351 7.3741596668 7.3772752507 
O 7.9524891344 4.8359881861 4.8533076827 
O 4.7897870780 7.9433278282 4.8277545777 
H 5.3862244942 7.3901782616 5.3907159913 
O 4.8406944301 4.8633264067 7.9381533694 
O 6.3851680137 6.4196421713 6.3878804135 
H 5.8280877778 5.8213002460 6.9459810819 
H 6.9480137065 5.8330795248 5.8255570570 
O 7.9309061156 7.9546836188 7.9664016377 
H 7.3702680835 7.3932352035 7.3749387980 
O 12.6152479481 6.3944699053 6.3839838906 
O 11.0340452470 7.9633951260 4.8337471661 
H 11.6213836050 7.3952962407 5.3894127320 
O 11.0517377217 4.8043743386 7.9182794116 
H 12.0553888875 5.8002846422 6.9408114707 
O 1.7159127818 11.0723162376 4.7934940870 
H 2.2686543800 10.5098174338 5.3904874226 
H 1.1485610712 11.6303997110 5.3809601353 
O 3.2299240054 9.4982942897 6.3812239724 
H 3.8253460255 10.0525465869 6.9445218562 
H 3.8234296236 8.9383725284 5.8216559463 
H 2.2593258763 8.4986579007 7.3713158934 
O 7.9253732923 11.0448322791 4.7974757484 
H 7.3656253016 11.6080189772 5.3872722475 
O 6.3744734847 12.5800079994 6.3848050452 
O 4.7905286476 11.0422774623 7.9424681790 
H 5.3814917142 11.6023878486 7.3807859393 
H 8.4941812258 10.4959335069 5.3930458885 
H 12.0535656253 12.0710539883 6.9289027611 
O 9.4678418200 9.5132416563 6.3821535914 
H 10.0675892887 8.9558096654 5.8268524932 
H 10.0555189474 10.0763980673 6.9443144638 
H 8.4931507148 8.5122576611 7.3742806859 
O 11.0544338730 11.0735576494 7.9104695261 
O 3.2599473055 3.2203900898 12.5953379248 
H 2.7008898086 3.8241444584 12.0448868992 
H 0.7236935431 3.8268669922 10.0614638757 
H 0.7244926509 2.7059687355 8.9442232924 
H 2.2609050204 1.1283386887 8.4836937257 
H 4.2448933719 1.1293354049 10.4731331241 
H 4.2421239787 2.2502625421 11.5910708298 
O 3.2362965906 0.1499485929 9.4739698805 
H 5.8192371126 0.7092631511 12.0251743925 
O 4.8357908460 1.6921111495 11.0301474094 
O 6.3801249673 3.2746089324 9.4814018643 
H 5.8173038131 2.6791269925 10.0353297789 
H 6.9416610435 2.6840614850 8.9214688372 
H 7.3781883789 4.2459494058 10.4862656130 
H 5.3939659623 4.2622769579 8.4957166082 
H 11.6168989401 4.2513307824 8.5114826488 
H 8.5176288590 1.1384176432 8.4908057832 
H 12.0606368656 0.7006457740 12.0656092801 
H 8.9361146433 3.8300743637 12.0609087093 
O 12.6041337309 3.2622533261 9.5071038733 
O 9.5134453517 0.1511353968 9.4706777350 
H 10.0702561794 0.7104799071 10.0654150110 
O 11.0702788809 1.6818793804 11.0763178736 
H 10.5103208916 2.2760388298 11.6336685976 
H 11.6304237522 2.2739828110 10.5165085028 
O 0.1755416233 6.3818236356 12.6033045676 
O 1.7245420999 4.8066684792 11.0621922599 
H 1.1578231624 5.3983817351 11.6169645196 
H 2.2813703998 5.4000187682 10.5007583614 
O 3.2751923879 6.4036277475 9.5233902793 
H 3.8351120281 5.8418906791 8.9328727772 
H 2.7071660764 6.9538638483 8.9292825222 
H 4.2751407601 7.3947260211 10.4951856690 
O 6.3705629250 6.3979990211 12.6052193791 
H 6.9267918898 5.8024799021 12.0449273609 
O 7.9323434584 4.8109948767 11.0786099792 
O 4.8337000451 7.9828700826 11.0612680689 
H 5.3893905488 7.3818437310 11.6173796691 
H 10.4943917596 5.3678660596 8.5094830983 
H 12.0544132874 6.9394662967 12.0439134091 
H 8.4917318833 5.3716362041 10.4856705426 
O 9.4891428286 6.3473023923 9.4996501452 
H 10.0498975625 6.9455407237 10.0541406142 
H 8.9316241954 6.9385110910 8.9376372697 
O 11.0420584512 7.9105145802 11.0360908966 
H 3.8435767199 8.9507486663 12.0550474031 
H 2.6791367729 12.0430679405 10.0418122706 
H 3.8025132522 12.0315842403 8.9264625200 
H 0.6944938347 10.0568135697 10.0581270218 
H 0.7011676404 8.9418727810 8.9324816373 
O 1.6896957610 11.0452577312 11.0306789632 
H 1.1359990127 11.6084094263 11.6268724225 
H 2.2616525018 10.4944558179 11.6199045166 
H 6.9491905942 12.0786409325 12.0319295860 
H 5.3862778208 10.4880268089 8.5050295956 
O 6.3928770715 9.5393508313 9.5117016304 
H 6.9472477509 8.9459040266 8.9457685082 
H 5.8346262292 8.9444406830 10.0718838599 
O 7.9516429527 11.1024947581 11.0456183276 
H 7.3883861689 10.5052144348 10.4926600512 
H 10.5019729024 11.6375207827 8.5067957997 
H 11.6140022980 10.5089408044 8.4989517863 
H 11.6037120897 8.5053598720 10.4793194114 
H 10.4890700972 8.5041082004 11.6023831175 
O 9.4994033760 9.4993706422 12.5785392675 
H 8.9508328277 12.0709198399 10.0616757995 
O 12.5784703799 9.5001428525 9.4908440603 
H 8.5070347565 10.5109252384 11.6105195475 

