&CONTROL
   calculation      = 'vc-relax'
   tstress          = .true.
   tprnfor          = .true.
   outdir           = './'
   pseudo_dir       = '/home/ppiaggi/QuantumEspresso/pseudos'
/
&SYSTEM
   ecutwfc          = 150
   input_dft        = 'SCAN'
   ntyp             = 2
   nat              = 192
   ibrav            = 0
/
&ELECTRONS
   mixing_beta      = 0.5
   startingpot      = 'atomic'
   startingwfc      = 'atomic+random'
/
&IONS
/
&CELL
/

ATOMIC_SPECIES
H 1.0079400002592869 H_ONCV_PBE_sr.upf
O 15.999400004115753 O_ONCV_PBE_sr.upf

K_POINTS gamma

CELL_PARAMETERS angstrom
12.48233907293878 0.00000000000000 0.00000000000000
0.00000000000000 12.46826030074276 0.00000000000000
0.00000000000000 0.00000000000000 12.45394566025328

ATOMIC_POSITIONS angstrom
H 0.6905293063 0.7139126692 0.7026343998 
O 3.2303993643 3.2649572238 0.1775962408 
H 3.8267943008 3.8239328135 0.7350277594 
O 3.2203039711 0.1571050015 3.2554124089 
H 3.8159198577 0.7196759292 3.8101885854 
H 0.7117647637 3.8143077652 3.8231017898 
H 0.6973566495 2.6997309275 2.6992562843 
O 1.6565534231 1.7091188712 1.7060102263 
H 2.2491190915 1.1502738527 2.2681176570 
H 2.2549996044 2.2750836297 1.1566472382 
H 5.3799608201 2.2726329669 4.2478310128 
O 6.4070194116 0.1657717934 0.1678436956 
O 6.3808287548 3.2319727915 3.2634541389 
H 5.8199918018 3.8262817125 2.7050313544 
H 6.9371924901 3.8244231500 3.8277869596 
O 7.9761492555 1.6984628113 1.7164973670 
H 7.3778853344 1.1441681494 1.1552672409 
H 7.3850715605 2.2605587717 2.2758609897 
O 12.5923416745 3.2591995706 3.2671326404 
H 10.0604454717 3.8285262014 0.7378214477 
H 8.9429229817 2.7065465391 0.7266962900 
H 8.9446742385 0.7041156641 2.6948046174 
H 11.6315265248 4.2616556308 2.2896896913 
H 11.6341823840 2.2535798926 4.2630718358 
H 10.5162199623 1.1344518472 4.2593934350 
H 4.2702674172 5.3922211034 2.2843269441 
H 2.2789157893 5.3638745664 4.2650119119 
O 0.1498572085 6.3922040801 0.1967453352 
O 3.2809563232 6.3485243400 3.2764490422 
H 2.7163447275 6.9416825688 2.7220209233 
H 3.8369673719 6.9436617042 3.8374663106 
O 1.7410728414 7.9421843205 1.7256940191 
H 1.1468546828 7.3874749475 1.1613681114 
O 4.8246117525 4.7966515466 1.7202409170 
H 5.3855651830 5.3875706706 1.1603542505 
O 6.3506308799 6.3926962620 0.1555315848 
H 6.9439269200 6.9508083686 0.7178128411 
O 7.9095784747 7.9395527795 1.7118342075 
H 8.5003743845 7.3751525570 2.2696352419 
O 11.0383422750 4.8262407189 1.7332486252 
H 11.6316538589 5.3865894344 1.1760296343 
O 9.4898532666 6.4081687261 3.2693048940 
H 10.0621638159 5.8156698608 2.7206354720 
H 8.9354026071 5.8130868202 3.8311415652 
H 10.4888185871 7.3936339737 4.2624720419 
H 3.8132986997 12.0651141961 2.6962874380 
O 3.2912072141 9.4956123897 0.1592780316 
H 2.7022308533 8.9347507866 0.7228846309 
O 0.1726468881 9.5032976126 3.2630434087 
H 1.1467983077 8.5081502364 2.2785746307 
H 4.2578702676 10.4965735511 1.1489904859 
H 1.1370137995 10.5064531350 4.2616609472 
H 2.2513781178 11.6298989509 4.2564954681 
H 5.3863703790 8.5128737446 4.2653093848 
H 5.8109299732 12.0699329922 0.7201572738 
O 4.8167715268 11.0908045873 1.7081934757 
H 5.3790420663 10.4986630409 2.2659549962 
O 6.3526540460 9.5000787983 3.2573330403 
H 6.9459913793 8.9359742332 2.7019370749 
H 6.9460836777 10.0581042481 3.8179259413 
O 9.5388048684 12.6097779894 3.2518725467 
H 8.5058509309 8.4953956073 1.1511462212 
H 8.9459167949 12.0508186294 3.8115660486 
H 12.0662896199 10.0616855299 2.6970668171 
H 12.0572357918 8.9465491644 3.8204293052 
H 10.0725364778 10.0513841879 0.7104238832 
O 11.0722754502 11.0233621816 1.6962581885 
H 11.6267493723 11.6210142962 1.1350265607 
H 10.5066382875 11.6145263250 2.2529744433 
H 4.2648802202 2.2681460100 5.3714425532 
H 2.2693935654 4.2453806155 5.3836599968 
O 0.1467870205 0.1490322099 6.4214809739 
O 3.2682387303 3.2581256821 6.3596312379 
H 3.8313713766 3.8234016433 6.9447087325 
H 2.7122264496 2.7032280877 6.9594639783 
O 1.7061653980 1.7351993751 7.9605562755 
H 1.1464999861 1.1419021460 7.4012651643 
O 4.8179988537 1.6771007747 4.8039504083 
O 6.4106679522 0.1538521706 6.3671763141 
H 5.8174651569 0.7104240806 5.8050322154 
O 7.9357411507 1.7080167678 7.9609296200 
H 7.3771551737 1.1500189786 7.3645833710 
O 11.0732100305 1.6934641655 4.8551093539 
H 8.5004588215 4.2559704361 5.3921942043 
H 12.0679247044 0.7033931578 5.8242678884 
O 9.4872333397 3.2593376934 6.3823841757 
H 10.0798935004 2.6969668879 5.8252998195 
H 10.0797744541 3.8193129375 6.9408425934 
H 8.5008281877 2.2659079202 7.3713288953 
O 1.6805699060 4.8009496477 4.8153280070 
H 0.6922926161 5.8112605889 5.8010945755 
O 1.6889434805 7.9681745112 7.9137162717 
H 1.1282977199 7.3754396388 7.3549924134 
O 7.9324451043 4.8093779336 4.8023788335 
H 7.3750051189 5.3713750085 5.3953287092 
O 4.8290140469 7.9203578842 4.8288481656 
O 4.8216240896 4.7966442843 7.9366996560 
H 5.3825569695 5.3891016286 7.3762877470 
O 6.3748804606 6.3459724999 6.3836291421 
H 6.9350153626 6.9397771148 6.9432412759 
H 5.8183836064 6.9427497008 5.8249759970 
O 7.9270708838 7.9107113900 7.9320923996 
O 12.6117010414 6.4076099670 6.3528793527 
O 11.0521661207 7.9839419053 4.8202774715 
H 11.6132606524 7.3832578180 5.3707793654 
O 11.0825565682 4.8268762794 7.9108578772 
H 12.0606850213 5.8166562635 6.9243003417 
H 4.2697936798 8.5155636486 5.3868049408 
O 1.6987410869 11.0665030832 4.8525827429 
H 0.7066581023 12.0559972216 5.8297239432 
O 3.2880284961 9.5109670210 6.3854801575 
H 2.6986398962 10.0675367415 5.8196436617 
H 2.6921889356 8.9428591795 6.9333224126 
H 4.2623234006 10.4990136708 7.3758953978 
O 7.9452771966 11.0582409624 4.7880727683 
H 7.3832221510 11.6211580298 5.3753452464 
H 5.8192837161 12.0620724493 6.9282076490 
O 4.8319375292 11.0897424869 7.9288142365 
H 8.4877826242 8.5089036990 7.3795800138 
H 8.5013743770 10.5017141309 5.3872533704 
O 9.4709597505 9.5148549029 6.3936586461 
H 10.0607303897 10.0748033235 6.9559129223 
H 10.0658206589 8.9569659165 5.8347317987 
O 11.0322882804 11.0734284430 7.9555697455 
H 11.6246443209 11.6274668460 7.3891166252 
H 3.8206059599 2.7074632857 12.0665628337 
O 3.2769915514 0.1696314968 9.4979795747 
O 0.1584546277 3.2971426278 9.5067037022 
H 0.7159604382 2.6960563817 8.9514326849 
H 2.2693893415 1.1406854016 8.5154498618 
H 4.2638103930 1.1497065027 10.4990535519 
H 2.2605546261 4.2693151945 11.6220820881 
H 1.1434971116 4.2593222006 10.5011419249 
H 5.8155213417 0.7241311724 12.0587018813 
O 4.8176422317 1.7170543065 11.0897364801 
H 5.3813294046 2.2709908580 10.4944112945 
O 6.3816514921 3.2534193637 9.5283171831 
H 6.9402244694 2.6961557400 8.9313404963 
H 5.8231697128 3.8150653195 8.9366793605 
H 7.3843251933 4.2526183308 10.5014188991 
H 11.6433198300 4.2678392480 8.5030121420 
H 12.0523982461 0.7094018692 12.0405540754 
O 9.5024064369 3.2730934281 12.5938086478 
H 12.0704490070 2.7106624036 10.0619265135 
O 9.4829841554 0.1582865109 9.5360019644 
H 8.9256212956 0.7162993225 8.9394865627 
O 11.0789991426 1.7185468644 11.0532394047 
H 10.4817362906 1.1615487554 10.4952407387 
H 10.4911993917 2.2785205909 11.6178047137 
H 8.5037411824 4.2650442024 11.6211972905 
H 0.7061006481 5.8279833986 12.0585577521 
H 4.2590225160 5.3891301248 8.4925460541 
O 1.6978878857 4.8574263717 11.0618790213 
O 3.2487350719 6.3930068162 9.4594617592 
H 2.6906030826 5.8329402622 10.0531300513 
H 3.8110588316 6.9495341747 10.0531783127 
H 2.2442351644 7.3753425214 8.4783190422 
H 6.9443813190 5.8298941409 12.0544457787 
O 7.9411260766 4.8508616871 11.0572944771 
O 4.8136065499 7.9408795835 11.0167854496 
H 5.3756797486 7.3835269615 11.6100612329 
H 10.5154205906 5.3795443099 8.5022643152 
H 12.0691312525 6.9458485666 12.0554368418 
O 9.5282981397 6.3764953256 9.4926141674 
H 8.9370691218 5.8199606527 10.0574130189 
H 8.9327586027 6.9362091948 8.9371041443 
O 11.0949292708 7.9284252312 11.0473518857 
H 10.5028809707 7.3690364503 10.4867035363 
H 2.6935907405 10.0502513220 12.0528986436 
H 2.7173787711 12.0378074037 10.0497646853 
H 3.8371224490 12.0525564474 8.9302445884 
O 0.1472408681 9.5195253357 9.4879480137 
H 0.6997607173 8.9278184969 8.9193613351 
H 4.2553575653 8.4999582489 11.6125901705 
O 1.7366350060 11.0440271938 11.0492136800 
H 1.1384722892 11.6054114860 11.6008625127 
H 1.1476304512 10.4827601075 10.4864691662 
H 7.3675739170 8.5001450075 8.4961554061 
H 5.3845260451 10.4946398762 8.4926006416 
O 6.3769246981 9.4940181635 9.4727261118 
H 6.9369075220 10.0495593822 10.0673647070 
H 5.8116388248 8.9364881860 10.0636344299 
O 7.9467238271 11.0290880661 11.0743827151 
H 7.3851312907 11.6209937024 11.6321307572 
O 12.6182133007 12.5859773854 12.5951035208 
O 9.5091341556 9.4590747802 12.6073718938 
H 8.9454458801 10.0563917132 12.0553629262 
H 10.0519563986 12.0730239294 8.9465730503 
H 12.0707616336 8.9246741646 10.0462026011 
H 11.6278742038 10.5055170992 8.5034528985 
H 10.5006125058 8.4908512546 11.6028785372 
H 8.4998972852 11.6250743994 10.5110805579 

