&CONTROL
   calculation      = 'vc-relax'
   tstress          = .true.
   tprnfor          = .true.
   outdir           = './'
   pseudo_dir       = '/home/ppiaggi/QuantumEspresso/pseudos'
/
&SYSTEM
   ecutwfc          = 150
   input_dft        = 'SCAN'
   ntyp             = 2
   nat              = 192
   ibrav            = 0
/
&ELECTRONS
   mixing_beta      = 0.5
   startingpot      = 'atomic'
   startingwfc      = 'atomic+random'
/
&IONS
/
&CELL
/

ATOMIC_SPECIES
H 1.0079400002592869 H_ONCV_PBE_sr.upf
O 15.999400004115753 O_ONCV_PBE_sr.upf

K_POINTS gamma

CELL_PARAMETERS angstrom
12.47771434750236 0.00000000000000 0.00000000000000
0.00000000000000 12.45856251391772 0.00000000000000
0.00000000000000 0.00000000000000 12.45321386047396

ATOMIC_POSITIONS angstrom
H 0.7004185829 0.7019897670 0.7088397946 
O 3.2618913181 3.2229583239 0.1584987640 
H 3.8252563992 3.8177459422 0.7120027807 
O 3.2399089668 0.1599965397 3.2661629196 
H 3.8253421270 0.7262085887 3.8260862672 
O 0.1476470346 3.2826100189 3.2690206157 
H 0.7021928611 2.6858687463 2.7084453444 
O 1.6713998294 1.6886732729 1.7080965358 
H 2.2642785770 2.2515263774 1.1518490267 
H 2.2653845837 1.1311618539 2.2698997747 
H 1.1506732629 4.2609353040 4.2625610234 
H 5.3863280350 4.2702038104 2.2666185991 
O 6.3818196782 3.2981571372 3.2630533581 
H 5.8231542989 2.7068805807 3.8260300981 
H 6.9429042089 2.7051458962 2.7046998649 
O 7.9398767125 1.7086822523 1.7411729473 
H 7.3851938011 1.1412967712 1.1509752530 
H 7.3726548959 4.2627322425 4.2657687766 
H 12.0653510070 2.6962273539 3.8352117702 
O 9.4617630918 3.2834773780 0.1572416354 
H 10.0572770749 3.8396760386 0.7179178859 
O 9.5320795620 0.1682935683 3.2900149679 
H 8.9415659235 0.7236861085 2.7238977528 
H 8.4949935603 2.2714705635 1.1473057952 
H 11.6263410165 4.2570382748 2.2740920591 
H 10.4987766449 1.1561844434 4.2846106704 
O 0.1562693520 6.3668183627 0.1927661388 
O 3.2762298236 6.4159037170 3.2752999084 
H 3.8338954802 5.8231353115 2.7119250267 
H 2.7139265723 5.8218979142 3.8319979105 
O 1.7145815477 7.9689840358 1.7274133220 
H 2.2815282140 7.3790950631 2.2840681741 
H 1.1607686709 7.3721413400 1.1673016425 
H 4.2716909260 7.3769027050 4.2691300166 
O 4.7909083518 4.8300070970 1.7096191700 
H 5.3819762908 5.3886318766 1.1452924622 
H 6.9310287709 6.9377523699 0.7099007299 
O 7.9089300375 7.9198667916 1.7026419273 
H 8.4986901055 7.3565070671 2.2639164706 
O 11.0355299745 4.8241015489 1.7193653818 
H 11.6338506977 5.3772185823 1.1575084837 
O 9.4605104616 6.3685395142 3.2607466238 
H 10.0612058758 5.8140657678 2.7032327911 
H 10.0481502910 6.9391066570 3.8152470604 
H 8.4928212836 5.3808504688 4.2568836881 
H 3.8416296811 12.0573705954 2.7149068795 
H 3.8136083122 10.0795331897 0.7364815088 
H 2.6988278418 8.9553911071 0.7342766428 
H 0.7069062326 10.0596362697 3.8303921908 
H 0.7146655775 8.9369826975 2.7154738876 
H 2.2688857013 11.6209602599 4.2645997313 
O 6.3955092480 12.5928629273 0.1880362748 
O 4.7984593956 11.0640616247 1.7357002891 
H 5.3950522205 11.6112116681 1.1676149826 
H 5.3880767579 10.4932710136 2.2880728070 
O 6.3834797704 9.5160904353 3.2723923561 
H 6.9432591610 8.9235626394 2.7131137281 
H 5.8261481234 8.9230156926 3.8362118393 
H 7.3752202329 10.4896828339 4.2621185211 
H 11.6117615188 8.5019488022 4.2575486021 
H 8.5068993440 8.4790464026 1.1482509564 
H 12.0537373100 12.0497802062 0.7153449784 
H 8.9348113661 12.0629474015 3.8412828388 
O 12.5953095466 9.4974366046 3.2699243570 
O 9.5144648724 9.4566974586 0.1583321911 
H 10.0707417527 10.0496117076 0.7205644170 
O 11.0642984033 11.0583653505 1.6925446379 
H 11.6268100344 10.4982198264 2.2833564521 
H 10.5084755767 11.6182375519 2.2877542993 
H 4.2704373364 2.2853011942 5.3950168858 
O 3.3000492031 3.2859639698 6.3854352135 
H 2.7039901592 3.8424535186 5.8249689895 
H 2.7086823558 2.7174306489 6.9379888583 
O 1.7166296262 1.7302531893 7.9217869822 
H 1.1495779966 1.1423743337 7.3639165663 
H 4.2524616557 4.2731777544 7.3837500872 
O 4.8293937201 1.7285258230 4.7986775253 
H 5.3843064256 1.1588752377 5.3863691462 
O 6.3828544622 0.1829025242 6.3787752724 
O 7.9657479663 1.7132377020 7.9329497628 
H 7.3745602957 1.1527579007 7.3716110388 
O 11.0943516621 1.7147541440 4.8440754511 
H 10.5000005093 2.2755605179 5.4012081808 
H 12.0538659248 0.7179239226 5.8250389816 
O 9.5237655912 3.2707576695 6.3908317790 
H 8.9301843231 3.8290266047 5.8303283590 
H 8.9276865559 2.7076172402 6.9459407003 
H 10.4966295627 4.2622187572 7.3758303038 
O 1.7385100379 4.8265071576 4.8213249246 
H 1.1375249722 5.3825020639 5.3777881714 
O 0.1668597325 6.3670289671 6.3640603541 
O 1.6971938228 7.9320067602 7.9601856806 
H 1.1414931254 7.3711715834 7.3658147255 
O 7.9292707650 4.8299548576 4.8548270284 
O 4.8292251480 7.9741410477 4.8278208225 
H 5.3884309776 7.3818549719 5.3894578004 
O 4.8489092331 4.8260028872 7.9482380541 
O 6.3847142072 6.4153015613 6.3886332814 
H 6.9361589659 5.8203630141 5.8218392738 
H 5.8200892207 5.8236215203 6.9445408191 
O 7.9769051798 7.9486509032 7.9361197803 
H 7.3817483222 7.3859485423 7.3822080814 
O 11.0438781315 7.9111274995 4.8106627716 
O 11.0974551024 4.8201478472 7.9297458544 
H 12.0503707252 5.8086168876 6.9251695291 
H 12.0513887664 6.9287553305 5.8077126857 
O 0.1710397541 12.6081165162 6.3756163988 
O 1.7069463623 11.0307353703 4.8244184606 
H 1.1464634160 11.6253907721 5.3821012263 
O 3.2554955084 9.4898932552 6.4104188142 
H 2.6974138448 10.0538669577 5.8199992577 
H 3.8190698389 8.9354745863 5.8159308717 
H 2.2584215894 8.4926151956 7.3690709097 
H 4.2583649207 10.4871181109 7.3741248606 
O 7.9325523888 11.0871540492 4.8202515506 
H 6.9365434366 12.0463461122 5.8147166845 
H 5.8187384318 12.0501339190 6.9355475444 
O 4.8492675004 11.0503155795 7.9324394748 
H 10.4927821590 8.5061957250 5.3773467474 
H 8.4962813467 10.4960886845 5.3781720205 
H 12.0575057412 12.0509997256 6.9379451648 
O 9.5043846052 9.5024271968 6.3440443316 
H 10.0615884503 10.0599982077 6.9419341092 
H 8.9418311725 8.9426846616 6.9347117882 
O 11.0498301470 11.0488530458 7.9122080929 
H 2.7089211219 3.8162817197 12.0451155025 
H 3.8222936258 0.6956446995 10.0549574763 
O 0.1645466055 3.2786732856 9.5147378788 
H 0.7183273381 2.7108942834 8.9252692858 
H 2.2697372153 1.1328873746 8.4831880819 
H 4.2646910255 2.2516380184 11.6181543360 
H 1.1521990209 4.2643828646 10.4815244745 
H 5.8360092110 0.6933104041 12.0471190579 
O 4.8260497373 1.6613355157 11.0572911488 
H 5.3835225282 2.2600850881 10.5006053877 
O 6.3700900123 3.2307769396 9.5022292751 
H 6.9297122786 3.8253022933 10.0602129910 
H 5.8079176146 3.8243223049 8.9449488990 
H 7.3712561236 2.2706075818 8.4930300027 
H 8.4966241557 4.2751815593 11.6176415487 
H 10.0570656820 2.7271858578 12.0494927454 
H 12.0775992289 3.8309040928 8.9187039199 
H 8.9440024646 0.7292450119 8.9351513087 
H 10.0642681516 0.7349373213 10.0551716134 
O 11.0328156305 1.7322599387 11.0565606247 
H 11.6296449811 2.2889185475 10.4994770806 
H 11.6222044204 1.1667738770 11.6149806054 
H 0.7175590462 5.8058693836 12.0550301664 
O 1.7121471333 4.8146366464 11.0842847639 
H 2.2689833899 5.3851025627 10.4988075418 
O 3.2588384622 6.3643660726 9.5012058621 
H 3.8112739616 6.9663248424 10.0583674685 
H 2.6933817334 6.9461932837 8.9355604272 
H 4.2587190912 5.3902088520 8.5057478941 
O 6.3328039165 6.3847668559 12.6013179365 
H 6.9255320077 5.8230817262 12.0430154810 
O 7.9023485734 4.8285207520 11.0519696837 
O 4.8040201399 7.9637561394 11.0245879005 
H 5.3606098542 7.4014841277 11.6176994223 
H 8.4971920295 5.3881041979 10.4947110301 
H 12.0735480285 6.9226250453 12.0512016590 
H 10.5095399503 5.3836103691 8.4910395941 
O 9.5126801309 6.3533713892 9.4950126319 
H 8.9533204845 6.9481356761 8.9375545228 
H 10.0692547374 6.9446422436 10.0610433490 
O 11.0624567773 7.8955296491 11.0572186863 
O 3.2631022729 12.5972781613 9.4595175395 
O 3.2501446911 9.5247464785 12.5955734931 
H 2.6975631323 12.0411425146 10.0510139144 
H 0.7038444778 10.0518429335 10.0576524684 
H 0.7042373714 8.9334894339 8.9359743192 
H 4.2484632548 8.5278635661 11.6161085510 
O 1.6971665419 11.0561901427 11.0187276577 
H 2.2572079640 10.5058210053 11.6210368131 
H 1.1317426620 11.6171897653 11.6056144798 
H 4.2532964701 11.6068023011 8.4935059047 
H 6.9595898626 12.0367146289 12.0489729068 
O 6.4135236371 9.5058723485 9.4839925159 
H 5.8164321940 8.9532022445 10.0452507212 
H 5.8212978636 10.0652329437 8.9218894422 
H 7.3861250974 8.5097785877 8.4968117386 
O 7.9613244364 11.0460378352 11.0784236812 
H 7.3950573346 10.4986817995 10.4804018153 
H 10.4952668919 11.6154345478 8.5033455193 
H 11.6108830102 10.4924299040 8.5069012241 
O 12.6070137567 12.6101323137 12.5699587722 
H 11.6205478671 8.4876407975 10.4952078412 
H 10.5055722394 8.4918941535 11.6172876205 
H 8.9571396703 10.0494028946 12.0493779613 
O 9.5052694354 12.5989257218 9.4972532960 
O 12.5898653041 9.4922160393 9.4964565640 
H 8.5144450993 11.6173912799 10.4904932177 

