&CONTROL
   calculation      = 'vc-relax'
   tstress          = .true.
   tprnfor          = .true.
   outdir           = './'
   pseudo_dir       = '/home/ppiaggi/QuantumEspresso/pseudos'
/
&SYSTEM
   ecutwfc          = 150
   input_dft        = 'SCAN'
   ntyp             = 2
   nat              = 192
   ibrav            = 0
/
&ELECTRONS
   mixing_beta      = 0.5
   startingpot      = 'atomic'
   startingwfc      = 'atomic+random'
/
&IONS
/
&CELL
/

ATOMIC_SPECIES
O 15.999400004115753 O_ONCV_PBE_sr.upf
H 1.0079400002592869 H_ONCV_PBE_sr.upf

K_POINTS gamma

CELL_PARAMETERS angstrom
12.47125011701096 0.00000000000000 0.00000000000000
0.00000000000000 12.44818771252926 0.00000000000000
0.00000000000000 0.00000000000000 12.47739973351755

ATOMIC_POSITIONS angstrom
O 0.1682829387 0.1661856101 0.1438892934 
H 3.8245212797 3.8175141975 0.7280625383 
H 2.7103989430 2.6966892870 0.7127574609 
H 2.7029098114 0.7068874695 2.7006933767 
O 0.1528137067 3.2397922220 3.2595452694 
H 0.7103192120 3.8355842152 3.8201333825 
O 1.7325188365 1.7017801353 1.7057941513 
H 1.1423781577 2.2654751428 2.2648320380 
H 1.1366912976 1.1485001468 1.1419413550 
H 4.2607260287 1.1357080405 4.2630398043 
H 6.9484461917 0.6982117026 0.6912402063 
O 6.4123871946 3.2436185232 3.2694778267 
H 5.8248717174 2.6830607644 3.8342403317 
H 5.8128202809 3.8096035002 2.7240909910 
O 7.9480058232 1.6983199283 1.6717390151 
H 7.3833629794 2.2510017354 2.2662261184 
H 7.3837448615 4.2444228082 4.2629036988 
H 12.0643926441 3.8289269570 2.6981920269 
H 8.9299794760 2.7096543142 0.7003172685 
H 10.0671963178 0.7137863987 3.8356847353 
H 8.5105033745 1.1413128398 2.2645761867 
H 10.4911175327 4.2810163830 1.1296759955 
H 11.6306051858 2.2640678316 4.2693790833 
H 4.2493160778 5.3875853616 2.2979418822 
H 2.2593921969 5.3959738079 4.2659797856 
O 3.2536783779 6.3666432104 3.2874945025 
H 2.7048061297 6.9579149354 2.7133556663 
H 3.8176198854 6.9613993639 3.8406069504 
O 1.7192326499 7.9361327204 1.7315026346 
H 1.1592845745 7.3722209324 1.1426408643 
O 4.8123404025 4.7972382532 1.7389394306 
H 5.3648927923 5.3936284703 1.1765794458 
O 6.3652674025 6.3891818443 0.1903620965 
O 7.9365073339 7.9810957536 1.7053399347 
H 7.3728217478 7.3896852613 1.1479055260 
O 11.0890242686 4.8393108132 1.6850716189 
H 10.4987220104 5.3980739616 2.2489713990 
H 12.0614705901 5.8224550620 0.6961135174 
O 9.4960524022 6.3860961531 3.2241282979 
H 8.9397226558 5.8170695525 3.8105149376 
H 10.0602637237 6.9346919912 3.8243904840 
H 8.4972969994 7.3865649919 2.2623979850 
O 3.2683246287 12.5956511556 3.2891241063 
H 3.8209222249 12.0347176205 2.6895147009 
O 3.2616189998 9.4841298864 0.1629131191 
O 0.1520177691 9.5168493213 3.2650276104 
H 0.7163613197 8.9295513119 2.7045778760 
H 2.2759828838 8.4930813265 1.1324724759 
H 4.2529850744 10.4798548717 1.1282068782 
H 1.1512238646 10.4965233100 4.2624880674 
H 2.2726713807 11.6137111248 4.2568042608 
O 4.8078816405 11.0441630729 1.7223510780 
H 5.3710975162 11.5986969253 1.1279487357 
H 5.3818094251 8.5240164865 4.2669936511 
O 6.3787876551 9.5195137061 3.2920702966 
H 5.8116096624 10.0686160008 2.6961277031 
H 6.9370126668 8.9559222091 2.7017571713 
H 7.3718282365 10.5062940189 4.2731889367 
O 9.5046222738 12.6035466881 3.2435948092 
H 12.0476764947 12.0565689789 0.7069894914 
H 8.9428728302 12.0474863409 3.8383836020 
H 12.0648151786 8.9192864721 3.8201884032 
H 8.9458190067 8.9480940166 0.7111497030 
H 10.0638475981 10.0695174201 0.7184008423 
O 11.0584374959 11.0600239272 1.6811518630 
H 11.6163092453 10.4974470100 2.2723204048 
H 10.4958230678 11.6147150770 2.2775386625 
H 0.7133369856 0.7251627088 6.9488677230 
O 3.2664391698 3.2450982870 6.3585218537 
H 2.7035556020 3.8394664804 5.8019120538 
H 3.8281346760 3.8354129894 6.9186185503 
O 1.6745585131 1.7201550120 7.9289821083 
H 2.2651964561 2.2795120761 7.3667974990 
H 4.2577357157 2.2625483005 5.3770983982 
O 4.8518498796 1.6907678384 4.8302567110 
O 6.4067383115 0.1626800016 6.3916779297 
H 5.8087861485 0.7131122662 5.8254590942 
O 7.9441442740 1.7106759269 7.9720955180 
H 7.3789196860 1.1546424043 7.3802751390 
O 11.0380079542 1.7056560446 4.8301729676 
H 11.6308246125 1.1496948941 5.3956093117 
O 12.5893221759 0.1625340011 6.3923489126 
O 9.4769800141 3.2660808942 6.3758833039 
H 10.0711437488 2.7038784170 5.8194607763 
H 10.0673468764 3.8265405330 6.9364217429 
H 8.5043558113 2.2679962670 7.3780264593 
H 8.5070621893 4.2566299998 5.3787167199 
O 1.7000694645 4.7912676541 4.8149961159 
H 1.1386618944 5.3750257674 5.3830163787 
H 0.7002803456 6.9328120705 6.9443994195 
O 1.7023902189 7.9032895300 7.9369617687 
O 7.9442838359 4.8434671997 4.8151929330 
O 4.7960823366 7.9646787788 4.8344399262 
H 5.3971939473 7.3987200241 5.3796645329 
O 4.8377175327 4.8320563895 7.8924074992 
O 6.3915050960 6.4198322948 6.3592907018 
H 5.8347146629 5.8259150737 6.9210514330 
H 6.9523401676 5.8257187036 5.8018417289 
O 7.9454280225 7.9379098584 7.9639110565 
H 7.3887044904 7.3829304291 7.3638571186 
O 12.6096558206 6.3681884606 6.3576390122 
O 11.0578053700 7.9156501462 4.7884424290 
H 11.6164904305 7.3576583513 5.3847162815 
O 11.0556222967 4.8303391804 7.9230308752 
H 12.0479614044 5.8168441018 6.9576821010 
H 2.2582435482 8.5026190413 7.3797384256 
O 1.7085157000 11.0604705248 4.8532063315 
H 0.7100351127 12.0540874967 5.8283076221 
O 3.2522774534 9.5055769342 6.4235144463 
H 3.8200220449 8.9526449605 5.8317129802 
H 2.6987725758 10.0682412183 5.8272440263 
H 4.2541066218 10.4930246767 7.3961130970 
O 7.9688891624 11.0569027109 4.8378211001 
H 7.3780601593 11.6183403850 5.3984773927 
H 5.8170402869 12.0492738914 6.9519313269 
O 4.8133709549 11.0813825536 7.9614295712 
H 10.5028979520 8.4802108383 5.3809205736 
O 9.5082160560 9.4628061361 6.3798073808 
H 10.0695852525 10.0555264170 6.9381738527 
H 8.9431657918 10.0558911716 5.8258766362 
H 8.5079979085 8.5016347926 7.3773209241 
O 11.0362398703 11.0520114374 7.9348211681 
H 11.6299891006 11.6172059650 7.3797894540 
O 3.2780361689 3.2551985327 12.6032426870 
O 3.2261410447 0.1832760475 9.4889697965 
H 3.8189192932 0.7375131042 10.0550235687 
H 0.7100670068 2.7076496437 8.9292126298 
H 0.7171026005 3.8188505439 10.0551197149 
H 2.2723511869 1.1668222264 8.4929560323 
H 4.2699879623 2.2704334736 11.6354192754 
H 2.2827715521 4.2555749422 11.6256395587 
H 5.3902210114 4.2690019119 8.4878765278 
O 4.8220771699 1.7154905613 11.0301230475 
H 5.3855932309 1.1483096477 11.6120262817 
O 6.3862348535 3.3037331494 9.5019179263 
H 5.8251238617 2.7137497458 10.0633894291 
H 6.9501438036 2.7080429067 8.9494942604 
H 7.3746167668 4.2763216835 10.5018914682 
O 9.4841384543 3.3064188217 12.6161798820 
H 11.6190938938 4.2680777493 8.5106608576 
H 12.0451579861 0.7241540617 12.0622777087 
H 10.0394278516 2.7150020103 12.0506207335 
O 12.5912381385 3.2660791204 9.4939140405 
H 8.9350617228 0.7170116905 8.9281423452 
O 11.0384803818 1.7166280285 11.0823589977 
H 11.6026882936 2.2677352338 10.4866749380 
H 10.4808615314 1.1522669155 10.4911423200 
H 8.4876090949 4.2690631224 11.6269145586 
O 0.1911315682 6.3772545464 12.6160463121 
H 4.2674517487 5.3828641429 8.4839084468 
O 1.7244344980 4.8151643758 11.0324159729 
H 1.1645494228 5.3754929379 11.6248183255 
O 3.2966571027 6.3683088726 9.4809965196 
H 2.6991383905 6.9310386430 8.9289629137 
H 2.7086119117 5.8120461011 10.0493545239 
H 4.2628068772 7.3725844564 10.4892801609 
H 6.9254311917 5.8297869146 12.0753469694 
H 5.8054050081 6.9441074378 12.0707989131 
O 7.9289919757 4.8665820312 11.0699054811 
O 4.8173738230 7.9336162938 11.0853399700 
H 10.5020281632 5.3896520911 8.5206547623 
H 12.0744881323 6.9431972942 12.0572059475 
O 9.5293767250 6.3999786756 9.5262392588 
H 8.9377438899 6.9516428646 8.9577185262 
H 8.9329250516 5.8394087010 10.0820821296 
O 11.1020010094 7.9454457040 11.0681050523 
H 10.4978912921 7.3869528852 10.5176458112 
H 1.1431108390 8.4912067851 8.5028194078 
H 2.7047139887 10.0491507109 12.0498631340 
H 3.8220580388 8.9279563835 12.0430507266 
H 3.8211614189 12.0625002765 8.9401770411 
O 0.1572610691 9.4909849845 9.4724896134 
H 0.7155367025 10.0581122862 10.0587543924 
O 1.7072224664 11.0371356680 11.0603424558 
H 1.1458094983 11.6261955363 11.6219138572 
H 2.2617450977 11.6317363624 10.4977141484 
O 6.3556805856 12.5916091114 12.6047320982 
H 6.9481773318 12.0308259849 12.0443348805 
H 5.3757075879 10.4846475260 8.5138940970 
H 5.3808881868 8.4919267045 10.4933362693 
O 6.3504471775 9.4837437065 9.5050371177 
H 6.9481881142 10.0422103447 10.0619174663 
H 6.9401283691 8.9275482905 8.9385063252 
O 7.9080093034 11.0411127241 11.0511632806 
O 9.4920033434 12.6031859823 9.5231903185 
H 8.5047548372 10.4915254619 11.6173189296 
H 8.4994185448 11.6020219637 10.4905256243 
O 9.5062954220 9.5107598619 12.5992872476 
H 10.0593889376 12.0497926524 8.9316369440 
H 12.0684977867 8.9381899133 10.0718071048 
H 11.6287156992 10.4947474823 8.4962919982 
H 10.5161939995 8.5045601006 11.6352001744 

