&CONTROL
   calculation      = 'vc-relax'
   tstress          = .true.
   tprnfor          = .true.
   outdir           = './'
   pseudo_dir       = '/home/ppiaggi/QuantumEspresso/pseudos'
/
&SYSTEM
   ecutwfc          = 150
   input_dft        = 'SCAN'
   ntyp             = 2
   nat              = 192
   ibrav            = 0
/
&ELECTRONS
   mixing_beta      = 0.5
   startingpot      = 'atomic'
   startingwfc      = 'atomic+random'
/
&IONS
/
&CELL
/

ATOMIC_SPECIES
H 1.0079400002592869 H_ONCV_PBE_sr.upf
O 15.999400004115753 O_ONCV_PBE_sr.upf

K_POINTS gamma

CELL_PARAMETERS angstrom
12.45907859716068 0.00000000000000 0.00000000000000
0.00000000000000 12.46178438841500 0.00000000000000
0.00000000000000 0.00000000000000 12.48016843715986

ATOMIC_POSITIONS angstrom
H 2.7108912693 2.7155311011 0.7130761019 
H 3.8234293825 3.8429748996 0.7116909175 
O 3.2700514914 0.1583386096 3.2348371039 
H 3.8279237151 0.7173838093 3.8323931184 
O 0.1541943752 3.2714897348 3.2863782884 
H 0.7124942260 2.7085674785 2.6951172918 
O 1.7149839845 1.7370989740 1.7038759419 
H 2.2760863769 1.1465189755 2.2651807387 
H 1.1555893763 1.1451177021 1.1434549828 
H 1.1489660852 4.2574509386 4.2528424148 
O 0.1526254473 0.1532471613 0.1718392156 
H 5.3755469142 4.2739200654 2.2583058623 
O 6.3756352204 3.2952242430 3.2449538814 
H 5.8131454184 2.7064761202 3.8053863911 
H 6.9360147514 2.6975883154 2.6908829147 
O 7.9398243257 1.7258007565 1.7050447451 
H 7.3842734749 1.1329719157 1.1416008971 
H 7.3744750901 4.2653013228 4.2493392181 
H 12.0545997709 3.8325238725 2.6920306491 
O 9.5290050702 3.2780096214 0.1500755225 
H 8.9376702378 2.7133455178 0.7045509228 
H 10.0628848084 0.7083199887 3.8381603326 
H 8.4936505132 1.1337408691 2.2705916049 
H 10.5066282462 4.2716571387 1.1442404747 
H 11.6109009696 2.2786072435 4.2654869291 
H 4.2612690493 5.3996415381 2.2661891756 
O 3.2700163139 6.3892129196 3.2348577930 
H 2.7118840813 5.8238057712 3.8240199415 
H 3.8279080063 6.9482294648 3.8324215555 
O 1.7149822430 7.9680521750 1.7038788960 
H 1.1555927847 7.3760730187 1.1434520582 
H 2.2760709654 7.3774680838 2.2651908360 
O 0.1526489630 6.3841264042 0.1718376540 
O 4.8175672884 4.8395989293 1.6690454091 
H 5.8148914553 5.8196450968 0.6938375547 
O 7.9398071847 7.9568023432 1.7050559168 
H 7.3842647084 7.3639673559 1.1416107173 
O 11.0692745583 4.8290129731 1.7369674793 
H 11.6250397182 5.3916464052 1.1418251288 
O 9.4743411792 6.3733075962 3.2802430850 
H 10.0702350889 5.8198956592 2.7178592328 
H 10.0628524123 6.9391855039 3.8381612093 
H 8.4936258538 7.3647378619 2.2706049193 
H 8.4967923373 5.3815980042 4.2677956715 
H 2.7119254220 12.0547078968 3.8239986571 
H 2.7108802148 8.9464479706 0.7130806320 
H 3.8234297950 10.0738767675 0.7116804332 
O 0.1541947165 9.5023839716 3.2863904436 
H 0.7125127740 8.9394865157 2.6951225070 
H 4.2612527707 11.6305667388 2.2661573879 
H 1.1489862624 10.4883432804 4.2527900595 
H 5.8148618084 12.0505170377 0.6938058482 
O 4.8175402867 11.0704903392 1.6690324918 
H 5.3754983600 10.5048180154 2.2583200591 
O 6.3756029464 9.5261552719 3.2449829485 
H 5.8131527514 8.9373630905 3.8054058699 
H 6.9359923983 8.9285573788 2.6908793492 
H 7.3744919473 10.4962249253 4.2493891871 
O 9.4743840437 12.6041845362 3.2802738426 
H 11.6109104061 8.5094383245 4.2654557860 
H 10.0702804235 12.0507682364 2.7178976656 
H 12.0546017019 10.0634213050 2.6920419424 
O 9.5290215063 9.5089428378 0.1500660110 
H 8.9376782147 8.9443178835 0.7045721809 
O 11.0693167115 11.0599051201 1.7369732608 
H 10.5066771034 10.5025713270 1.1442191905 
H 11.6250768885 11.6225685922 1.1418518550 
H 8.4968221484 11.6125030783 4.2678694497 
H 4.2538594293 2.2724976509 5.3863615119 
O 3.2682953424 3.2634835011 6.3515572630 
H 2.7113267527 2.7005194096 6.9438806262 
H 3.8254956055 3.8253708462 6.9457287291 
O 1.7137932912 1.7254477080 7.9406639705 
H 1.1560103482 1.1332437993 7.3784560727 
H 2.2676029621 4.2566395566 5.3754383078 
O 4.8105463683 1.7119874329 4.7897810697 
H 5.3708035546 1.1513571855 5.3812347507 
O 6.3433128375 0.1513772985 6.3832460309 
H 6.9401667046 0.7104677442 6.9401851432 
O 7.9157711353 1.6941255623 7.9315015385 
H 8.5089602040 2.2583048127 7.3760885157 
O 11.0542581525 1.6882916917 4.8306453808 
H 10.4959508974 2.2832552623 5.3899968703 
H 12.0517636842 0.7133859933 5.8127079437 
O 9.4980562670 3.2395290705 6.3870770737 
H 10.0571027012 3.8368152600 6.9447173960 
H 8.9354272407 3.8295992571 5.8278276258 
O 1.7088025824 4.8490523142 4.8148894669 
H 0.7092084592 5.8198310702 5.8077446226 
O 1.7137981111 7.9564568663 7.9406613389 
H 1.1560074826 7.3642528274 7.3784614298 
O 7.9244852357 4.8241139900 4.8511218868 
O 4.8105622438 7.9428184547 4.7898154632 
H 5.3708027147 7.3821876282 5.3812827653 
O 4.8155716215 4.7984245618 7.9354462651 
H 5.3782450497 5.3927552708 7.3792390987 
O 6.3433189975 6.3821736829 6.3832674146 
H 6.9330211667 5.8224284471 5.8199625162 
H 6.9401790702 6.9412537827 6.9402047206 
O 7.9157940314 7.9249673905 7.9315259859 
O 12.6111606411 6.3803752596 6.4024096331 
O 11.0542643530 7.9191295406 4.8306186472 
O 11.0527559160 4.7972205348 7.9343704672 
H 11.6102669448 5.3894272331 7.3710385197 
H 12.0517600618 6.9442676485 5.8127234907 
H 4.2538818396 8.5033516003 5.3863812700 
O 1.7088379896 11.0799439069 4.8148267233 
H 2.2676397596 10.4875309414 5.3753715054 
H 0.7091941905 12.0507033004 5.8076774280 
O 3.2683483934 9.4943917112 6.3515308463 
H 3.8255505087 10.0562864118 6.9456927128 
H 2.7113607784 8.9314592440 6.9438672264 
O 7.9245117265 11.0550119744 4.8511838943 
H 6.9330256958 12.0533761389 5.8199962511 
O 4.8156053521 11.0293638936 7.9354310870 
H 5.3782502286 11.6237337890 7.3792376562 
O 12.6111543821 12.6112339167 6.4023609573 
H 10.4959858672 8.5141036560 5.3899860297 
H 8.5089729326 8.4891606078 7.3761182705 
O 9.4980989104 9.4703853350 6.3870960484 
H 10.0571234494 10.0676897282 6.9447383251 
H 8.9354629746 10.0604477831 5.8278469669 
O 11.0527522758 11.0281526061 7.9343832590 
H 11.6102687100 11.6203272095 7.3710233945 
O 3.2649452921 3.2804627599 12.5996442579 
H 3.8255744043 0.7114168489 10.0766612581 
O 0.1550332862 3.2654422641 9.5189891151 
H 0.7148297086 2.7026552654 8.9295269866 
H 2.2731834571 1.1342036469 8.5026269295 
H 4.2667713280 2.2813418452 11.6283044309 
H 1.1492906158 4.2562278843 10.5008826300 
H 2.2645753852 4.2588826206 11.6271938237 
H 5.8221652958 0.7074651073 12.0541294153 
O 4.8234386180 1.6869401033 11.0676442831 
H 5.3799846655 2.2761437151 10.5009073387 
O 6.3754751564 3.2546712466 9.5187282936 
H 5.8192033331 3.8218633384 8.9302260944 
H 6.9353806561 2.6991091584 8.9232626242 
H 7.3814943504 4.2563106032 10.5047334961 
H 8.5074424637 1.1392363190 8.4956579519 
H 12.0530411045 0.7162013110 12.0603797684 
H 8.9362706779 3.8339078815 12.0653352030 
H 12.0555683448 3.8247510692 8.9250479579 
H 10.0673594255 0.7116742914 10.0749867874 
O 11.0654610579 1.6942621500 11.0728308016 
H 10.5036076348 2.2879499850 11.6295048562 
H 11.6203887718 2.2840030551 10.5048884158 
H 0.7079261628 5.8212388402 12.0576822074 
H 4.2622960269 5.3891931548 8.5036000084 
O 1.7057293453 4.8493974113 11.0633320500 
O 3.2682656830 6.3802446872 9.4839873216 
H 2.7075718629 5.8200779550 10.0754537510 
H 3.8255768886 6.9423046569 10.0766503390 
H 2.2731835363 7.3652058374 8.5026212448 
O 6.4120672215 6.3697412644 12.6081717667 
H 5.8221916412 6.9383342469 12.0541266243 
O 7.9701576152 4.8160717383 11.0670868675 
H 7.3719112534 5.3759682102 11.6232022994 
O 4.8234322201 7.9177752761 11.0676642689 
H 8.5074759904 7.3700872882 8.4956789000 
H 12.0530432158 6.9470673801 12.0603852101 
H 10.4983526996 5.3897509218 8.5001425220 
O 9.5120552726 6.3763282223 9.4852154329 
H 10.0673782449 6.9424774542 10.0750137036 
H 8.9500012580 5.8205768810 10.0789808143 
O 11.0654519428 7.9251058720 11.0728519350 
O 3.2682724416 12.6110990931 9.4840308724 
H 4.2667650433 8.5121773797 11.6283237403 
H 0.7079058313 12.0521279838 12.0576981242 
O 3.2649480157 9.5113551638 12.5996380435 
H 2.7075870165 12.0509478593 10.0755182804 
O 0.1550112955 9.4963495183 9.5190307326 
H 0.7148363593 8.9336062965 8.9295524615 
H 4.2623088497 11.6200934774 8.5036034282 
O 1.7057059170 11.0802873188 11.0634073315 
H 1.1492633257 10.4871211953 10.5009593199 
H 2.2645620613 10.4897687408 11.6272600756 
O 6.4120345653 12.6006198533 12.6081432379 
H 5.3799653102 8.5069806115 10.5009173476 
O 6.3754613183 9.4855095751 9.5187333276 
H 5.8192254964 10.0527207219 8.9302195205 
H 6.9353771996 8.9299417136 8.9232827532 
O 7.9701615107 11.0469839965 11.0670478075 
H 7.3719088055 11.6068800637 11.6231555951 
H 7.3815010684 10.4871988529 10.5047182052 
O 9.5120409992 12.6073031352 9.4851884359 
H 10.5036009664 8.5188008141 11.6295197386 
H 11.6203759656 8.5148461418 10.5049065651 
H 8.9362896818 10.0648343150 12.0653176431 
H 8.9500130517 12.0515236315 10.0789495154 
H 12.0555528743 10.0556701977 8.9250965552 
H 10.4983571031 11.6207148496 8.5001282882 

