&CONTROL
   calculation      = 'vc-relax'
   tstress          = .true.
   tprnfor          = .true.
   outdir           = './'
   pseudo_dir       = '/home/ppiaggi/QuantumEspresso/pseudos'
/
&SYSTEM
   ecutwfc          = 150
   input_dft        = 'SCAN'
   ntyp             = 2
   nat              = 192
   ibrav            = 0
/
&ELECTRONS
   mixing_beta      = 0.5
   startingpot      = 'atomic'
   startingwfc      = 'atomic+random'
/
&IONS
/
&CELL
/

ATOMIC_SPECIES
O 15.999400004115753 O_ONCV_PBE_sr.upf
H 1.0079400002592869 H_ONCV_PBE_sr.upf

K_POINTS gamma

CELL_PARAMETERS angstrom
12.46872629027084 0.00000000000000 0.00000000000000
0.00000000000000 12.45465826191871 0.00000000000000
0.00000000000000 0.00000000000000 12.47076634393613

ATOMIC_POSITIONS angstrom
O 0.1743203102 0.1694763377 0.1564015574 
H 2.7093378202 2.7214262086 0.7097237175 
H 3.8261101465 3.8449373818 0.7102880578 
H 3.8255739574 0.7039627973 3.8171332178 
H 0.7215220390 2.7165928752 2.6986666656 
H 0.7196550460 3.8297320475 3.8246374623 
O 1.7193056694 1.7496782041 1.6953753279 
H 1.1515978120 1.1586477995 1.1410317954 
H 2.2752992034 1.1545356293 2.2569451668 
H 5.3892087967 4.2744044652 2.2648203301 
O 6.3762290986 3.2862701004 3.2634378871 
H 6.9395913331 2.6953811109 2.7052539298 
H 5.8163584633 2.6925445128 3.8207518089 
O 7.9407485552 1.7019789491 1.7372537901 
H 7.3810741827 1.1420259044 1.1444037615 
H 7.3769214001 4.2661922708 4.2551034969 
O 12.5965657171 3.2698369117 3.2641909690 
O 9.4544908851 3.2701526634 0.1505051952 
H 10.0541563076 3.8264004971 0.7084089271 
O 9.5044804544 0.1607223556 3.2899018171 
H 8.9396184821 0.7142775925 2.6937294814 
H 8.4968316026 2.2650456750 1.1432635965 
H 11.6124616025 4.2521128554 2.2659164951 
H 11.6119931317 2.2710835986 4.2631980493 
H 10.4893687020 1.1566335808 4.2553604592 
H 2.2699289472 5.3848401328 4.2681619245 
H 0.7068834047 6.9162346186 0.7097216135 
O 3.2549738002 6.3756883736 3.2907450204 
H 2.6952460846 6.9358532423 2.6979841006 
H 3.8233183053 5.8243514700 2.6976193580 
O 1.6962282653 7.9002147405 1.7028546120 
H 4.2564418294 7.3815541963 4.2602705272 
O 4.7994525540 4.8389701461 1.7073246092 
H 5.3941336129 5.3960044061 1.1463030338 
H 6.9441799032 6.9509593416 0.7059152457 
O 7.9503866705 7.9560996575 1.6842506642 
O 11.0182623991 4.8098697234 1.7053377532 
H 11.6158064955 5.3632619896 1.1430418911 
O 12.5840717387 6.3537542451 0.1505080610 
O 9.5056026287 6.4174938037 3.2624423946 
H 10.0577967452 5.8172128662 2.7033249808 
H 8.9376019253 5.8317332268 3.8215765987 
H 8.5065883183 7.3905966026 2.2755758186 
H 10.4980413201 7.3864811669 4.2679099514 
O 3.2649331578 12.6034946667 3.2197925489 
H 2.2566993020 8.4866685847 1.1364975445 
H 1.1419392287 8.4986591391 2.2618402266 
H 2.7035214002 12.0457780981 3.8136273493 
O 3.2527479467 9.4792352130 0.1736139856 
O 0.1581510902 9.5005845883 3.2370419257 
H 0.7176207183 10.0620734918 3.8275632507 
H 4.2583196425 11.6086720315 2.2511875976 
H 4.2601055955 10.4859509641 1.1376604544 
H 5.8137686971 12.0470227566 0.6981874732 
O 4.8539905182 11.0475682042 1.6941238585 
O 6.4133891831 9.5114087910 3.2678428580 
H 5.8210963373 8.9478560613 3.8234886594 
H 5.8206767125 10.0628655191 2.6997612663 
H 7.3882435077 8.5127336289 2.2778997954 
H 7.3901180970 10.5061084870 4.2641964921 
H 12.0547609752 12.0553333862 0.7121446047 
H 10.0648171555 12.0557188658 2.6978814302 
H 12.0640719819 8.9475933206 3.8332274844 
H 8.9492455459 8.9380265526 0.7115884179 
O 11.0698396087 11.0776331902 1.7003708940 
H 10.5071741219 10.4859449240 1.1419897321 
H 11.6260729697 10.4850179386 2.2640683254 
H 8.5136151617 11.6198460062 4.2633487714 
H 4.2538326709 2.2501207974 5.3861109740 
O 0.1726470514 0.1560050619 6.3851472748 
O 3.2642448085 3.2228002490 6.3764905239 
H 3.8243722797 3.8097681443 6.9417983928 
H 2.7029279701 3.8216548641 5.8240690794 
O 1.7086338679 1.6953268789 7.9705219570 
H 2.2683314295 2.2552820605 7.3772079064 
H 1.1461877445 1.1381710061 7.3767145138 
O 4.8123663789 1.6889078660 4.7920329946 
H 5.3754859144 1.1357238222 5.3868265332 
H 6.9542889856 0.7232818007 6.9498797500 
O 7.9523278799 1.6991053533 7.9365080671 
O 11.0463370155 1.7153033996 4.8530534768 
H 12.0463289689 0.7121934195 5.8250954451 
O 9.5107549663 3.2838870155 6.4030642033 
H 8.9468640345 3.8407635252 5.8126054165 
H 10.0633112795 2.7178994314 5.8076059868 
H 8.5137818017 2.2891038120 7.3753456457 
H 10.5024340054 4.2670786484 7.3863133658 
O 1.7147350727 4.7947507949 4.8363664809 
H 1.1532797670 5.3910828517 5.3895169408 
O 0.1764041585 6.3984126084 6.3885141113 
O 1.7471752815 7.9484150785 7.9306602695 
H 1.1506592949 7.3899284500 7.3727007266 
O 7.9634782301 4.8359598954 4.8105774673 
H 7.3633661825 5.3872625155 5.3719607168 
O 4.8205170425 7.9700807682 4.8197780240 
H 5.3760756495 7.3704451800 5.3777041460 
O 4.8225222367 4.8090179642 7.9062499648 
O 6.3675272348 6.3717073363 6.3418165672 
H 5.8067178418 5.8060147507 6.9284954017 
H 6.9204190841 6.9282078546 6.9449856996 
O 7.9097944291 7.9199827323 7.9134287950 
O 11.0878051229 7.9483232257 4.8290599766 
O 11.0522370824 4.8588332635 7.9573054941 
H 12.0513556631 6.9563639807 5.8267906756 
H 12.0523130266 5.8417408214 6.9500861777 
O 1.7181487391 11.0641869009 4.7947781366 
H 1.1577330177 11.6216292150 5.3895839840 
H 2.2807527684 10.5061494590 5.3876941012 
O 3.2808333084 9.5367151288 6.3807306982 
H 3.8351746744 8.9426556038 5.8165739064 
H 2.7158175670 8.9437821183 6.9357080504 
H 4.2641820877 10.5090395850 7.3879375021 
O 6.3636970883 12.6070781508 6.3994601927 
O 7.9555199654 11.0598240359 4.8573983728 
H 6.9585506439 12.0528370661 5.8369178971 
O 4.8141680541 11.0709588299 7.9881930655 
H 5.3830745040 11.6260241034 7.3994334627 
H 10.4898127859 8.5006717013 5.3917577766 
H 12.0534646198 12.0387650664 6.9380738000 
O 9.5138217573 9.4819444024 6.3843054769 
H 8.9278021887 10.0495532165 5.8239594373 
H 8.9164377642 8.9227255880 6.9385709523 
O 11.0663158164 11.0647441162 7.9278716730 
H 10.4985958222 10.4727051995 7.3757206377 
O 3.2639106764 3.2880359341 12.5881872135 
O 3.2591262380 0.1619487641 9.5457227641 
H 2.6971796829 0.7181642398 8.9504927369 
H 0.7168732015 3.8239834189 10.0622031820 
H 0.7022760440 2.7016658857 8.9457579829 
H 2.2717115249 4.2694905718 11.6104608965 
H 4.2543630129 1.1564967910 10.5087476459 
H 4.2651842745 2.2782265050 11.6239132489 
H 5.3911685933 4.2635807734 8.5055798085 
H 5.8192443528 0.7149381753 12.0536341306 
O 4.8542312203 1.7180848959 11.0608320423 
O 6.3879951486 3.2804802000 9.4702907246 
H 5.8272713425 2.7212655373 10.0618518431 
H 6.9422896029 3.8437052412 10.0650898784 
H 7.3940218500 2.2934977557 8.4956925622 
H 8.4998178511 4.2749860393 11.6302075125 
H 12.0451583444 0.7184855825 12.0631026290 
H 10.0428403466 2.7127161174 12.0536824512 
O 12.5855030465 3.2635443849 9.5092223469 
H 8.9476222173 0.7169930645 8.9219844178 
O 11.0396953785 1.7126369706 11.0874031513 
H 10.4879095919 1.1506302071 10.4890158336 
H 11.6043287259 2.2724905515 10.4988640055 
H 11.6143187255 4.2650448797 8.5136264581 
H 4.2650799303 5.3768358686 8.4939044143 
H 0.7112664199 5.8028214308 12.0552289095 
O 1.6752765336 4.8189745856 11.0430329048 
H 2.2671116699 5.3833019776 10.4865939985 
O 3.2680400316 6.3520421337 9.4879544227 
H 3.8292843673 6.9397890635 10.0526985945 
H 2.7143806144 6.9492383069 8.9267258418 
O 6.3530419326 6.3913096460 12.6160394735 
H 6.9512089008 5.8297065658 12.0614732715 
O 7.9073465083 4.8374371442 11.0709408153 
O 4.7887387881 7.9279598727 11.0573218415 
H 5.3867085610 7.3730996032 11.6173112031 
H 8.4762484119 7.3688775886 8.5085657685 
H 8.5024857554 5.3942431412 10.5090198253 
O 9.4590173382 6.3836649289 9.5023976404 
H 10.0546480469 6.9374690440 10.0650177788 
H 10.0518509438 5.8166660575 8.9489258436 
O 11.0661295896 7.9281105053 11.0306136292 
H 11.6227731743 7.3639355558 11.6217015462 
H 2.6988207941 10.0492791874 12.0548797402 
H 3.8133124246 8.9229890782 12.0489483704 
H 3.8206343277 12.0585960303 8.9517454242 
O 0.1543502219 9.4875866497 9.4784745871 
H 0.7092821776 10.0474114181 10.0745831241 
H 1.1557376734 8.5019639797 8.4976530486 
O 1.7121103281 11.0298423772 11.0714865268 
H 2.2703937533 11.6246738265 10.5109143930 
H 1.1513327505 11.6213988050 11.6307151837 
O 6.4105465057 12.6060000677 12.6118078980 
H 7.3593886595 8.4884885957 8.5061405461 
H 5.3778629241 8.4958144420 10.5024554090 
O 6.3787338354 9.4761605786 9.5149057867 
H 5.8213116222 10.0755133922 8.9602821226 
H 6.9497217176 10.0612260468 10.0720479931 
O 7.9541712036 11.0231238909 11.0637181912 
H 7.3857288211 11.6141378538 11.6169149129 
O 9.5039473516 12.6080926995 9.5147642805 
O 9.5414279870 9.4877836924 12.6118321189 
H 8.9482571738 10.0523659020 12.0572330937 
H 10.0651870354 12.0501141302 8.9226152567 
H 12.0634357542 8.9241715006 10.0688373465 
H 11.6195903804 10.4730998810 8.4945601414 
H 10.5101696530 8.4910008188 11.6251261176 
H 8.5044647978 11.6161038237 10.4955179238 

