&CONTROL
   calculation      = 'vc-relax'
   tstress          = .true.
   tprnfor          = .true.
   outdir           = './'
   pseudo_dir       = '/home/ppiaggi/QuantumEspresso/pseudos'
/
&SYSTEM
   ecutwfc          = 150
   input_dft        = 'SCAN'
   ntyp             = 2
   nat              = 192
   ibrav            = 0
/
&ELECTRONS
   mixing_beta      = 0.5
   startingpot      = 'atomic'
   startingwfc      = 'atomic+random'
/
&IONS
/
&CELL
/

ATOMIC_SPECIES
H 1.0079400002592869 H_ONCV_PBE_sr.upf
O 15.999400004115753 O_ONCV_PBE_sr.upf

K_POINTS gamma

CELL_PARAMETERS angstrom
12.46798197864139 0.00000000000000 0.00000000000000
0.00000000000000 12.45588470688246 0.00000000000000
0.00000000000000 0.00000000000000 12.47316196996384

ATOMIC_POSITIONS angstrom
H 0.6988032187 0.7042939727 0.7109175035 
O 3.2753713124 3.2759651473 0.1666441472 
O 3.2639563342 0.1884040840 3.2666557567 
H 0.6980252983 3.8292140241 3.8287105831 
H 0.7074975883 2.7138762100 2.7070245389 
O 1.6769564368 1.7236648833 1.7133966610 
H 2.2720526562 2.2790237728 1.1530119498 
H 2.2692174600 1.1625877117 2.2729444928 
H 4.2632265705 4.2617696399 1.1444571178 
H 4.2587654903 1.1677948197 4.2611454227 
H 6.9512702237 0.7155202477 0.7017937241 
O 6.3573679986 3.2659878760 3.2553494124 
H 6.9561713204 3.8218848967 3.8125167500 
H 6.9465644993 2.7035199650 2.6943254212 
O 7.9133501023 1.7043951297 1.7015900616 
H 5.3823954591 4.2607526042 2.2660638240 
H 5.3790248650 2.2853838412 4.2566711957 
H 8.5059887140 1.1442967651 2.2615366483 
H 8.5088113040 2.2675076687 1.1472531782 
O 12.5765554747 3.2675224753 3.2668823518 
O 9.5029959763 3.2670953093 0.1760745221 
H 10.0607788408 0.6979868909 3.8213254233 
H 11.6185807239 2.2642042298 4.2595871997 
H 10.4890538499 4.2625828942 1.1487329952 
H 11.6079973355 4.2607118913 2.2696270398 
H 2.2563294738 5.3824718937 4.2645509661 
H 0.6929387704 6.9494154140 0.7148829456 
O 3.2274665313 6.3755051933 3.2696352525 
H 3.8239222411 6.9342213982 3.8269409480 
H 3.8191452239 5.8121245428 2.7111116742 
O 1.6792102102 7.9377694418 1.7166616675 
H 2.2693455581 7.3736043895 2.2758921216 
O 4.8159761580 4.8538403768 1.7127998564 
O 6.3793069530 6.4021012774 0.1563370054 
H 5.8130407173 5.8137840125 0.7151587794 
O 7.9727863126 7.9413322493 1.6974781742 
H 7.3771654825 7.3804734744 1.1424932372 
H 8.5183470244 5.3790493471 4.2562638123 
O 11.0467096296 4.8543521978 1.7119499704 
H 12.0416329025 5.8329046472 0.7072199118 
O 9.5118189799 6.3983367852 3.2948070551 
H 8.9480054868 6.9511337383 2.6995796134 
H 10.0658707268 5.8312665159 2.7022082422 
H 10.4983627028 7.3853849284 4.2595008059 
H 3.8233695945 12.0552921612 2.7020262831 
H 2.7070242421 12.0463136382 3.8231146714 
O 3.2810505450 9.5030276546 0.1769591991 
H 0.7144381807 8.9305226396 2.7025306508 
H 0.7147332644 10.0523915905 3.8195487490 
H 2.2748648358 8.4961626469 1.1606452257 
H 4.2644088707 10.5001651507 1.1381951182 
H 5.3930589532 8.4988878390 4.2507313894 
O 4.8183086428 11.0628721189 1.7350419096 
H 5.3804738018 11.6221511530 1.1446964637 
O 6.3851321549 9.4736588415 3.2616012891 
H 6.9391074595 10.0677637879 3.8252425486 
H 5.8201406052 10.0654513901 2.7061453066 
H 7.3846187971 8.5056623256 2.2561627519 
O 9.4989491725 12.5919176031 3.2318470558 
H 12.0470490459 12.0414079589 0.7080589443 
H 8.9362453276 12.0408796114 3.8302099929 
O 12.5891561025 9.4958782179 3.2572055399 
H 10.0666258059 10.0559576961 0.7057626722 
H 8.9478427424 8.9374200672 0.6921980620 
O 11.0503539265 11.0459608877 1.6695964331 
H 10.4906042907 11.6017142677 2.2677920627 
H 11.6149907215 10.4875183428 2.2597983990 
H 11.6172621710 8.5033957485 4.2664640588 
H 2.2537437931 4.2666992376 5.3836574620 
H 0.7017181242 0.7082354544 6.9389030847 
O 3.2248805068 3.2728347987 6.3862090639 
H 3.8199766253 2.7240752947 5.8167225259 
H 3.8183775387 3.8337524780 6.9433564131 
O 1.6934576939 1.6787668860 7.9320799106 
H 2.2526576380 2.2727745867 7.3730772038 
O 4.8140599547 1.7334529328 4.8518457923 
O 6.4092081145 0.1743374759 6.3918188286 
H 5.8147665840 0.7344744109 5.8353169857 
O 7.9825028904 1.7166920956 7.9444781183 
H 7.3859965616 1.1579423671 7.3870525122 
H 8.5227775464 4.2537588407 5.3675118997 
O 11.0588456397 1.6659628112 4.8146244023 
H 10.5048843468 2.2564558477 5.3834477735 
H 12.0536560052 0.7011491704 5.8180147594 
O 9.5194116500 3.2569735993 6.3533150657 
H 8.9556549468 2.7044172081 6.9490730459 
H 10.0737773758 3.8237245821 6.9438898426 
O 1.6596262184 4.8273995966 4.8259325640 
H 0.6933623717 5.8338612410 5.8234303377 
O 1.7510473051 7.9448155095 7.9519313850 
H 1.1565978355 7.3865610989 7.3932056977 
O 7.9270230536 4.8134443196 4.8115129321 
O 4.8322630587 7.9063129420 4.8101037164 
O 4.8297199996 4.7957902112 7.9477666384 
H 5.3874918998 5.3834818471 7.3809139906 
O 6.3830555142 6.3663229804 6.4000262293 
H 6.9476507339 5.8122058114 5.8076097728 
H 5.8288403388 6.9313065361 5.8071335443 
O 7.9196015354 7.9341183203 7.9711290066 
H 7.3667066886 7.3700080459 7.3763103640 
O 12.6065391667 6.3925801341 6.4208855324 
O 11.0521031942 7.9474284598 4.8572668970 
O 11.0539658002 4.8046156482 7.9520382249 
H 11.6100193295 5.4019177294 7.3927809605 
H 12.0457091875 6.9562672332 5.8326182158 
H 4.2821973541 8.5008233898 5.3771518670 
O 1.7144224250 11.0398023760 4.7931656515 
H 1.1541217332 11.5949184307 5.3893058406 
H 2.2819642334 10.4840763420 5.3818843891 
O 3.2904787419 9.4998307957 6.3559926411 
H 3.8461747263 10.0679626575 6.9448930574 
H 2.7294756479 8.9471432743 6.9534963197 
O 7.9367812992 11.0590823435 4.8067652411 
H 7.3796528297 11.6225227753 5.3980216340 
H 5.8175985572 12.0717574275 6.9552328408 
O 4.8306630233 11.0706018571 7.9200328822 
O 12.6147360770 12.5659274758 6.3787237997 
H 8.4922189598 10.4972050185 5.4009260021 
O 9.4631758088 9.4878393148 6.3982829634 
H 10.0584794349 10.0485946089 6.9537635609 
H 10.0549381522 8.9337919950 5.8313358364 
H 8.4866286370 8.4893962701 7.3805533631 
O 11.0630877963 11.0239320172 7.9446723198 
H 11.6213314819 11.6134795732 7.3788376861 
H 2.7142797099 3.8304491952 12.0447319398 
H 3.8300195970 2.7084228915 12.0498676991 
H 2.6837635990 0.7037228808 8.9398288782 
O 0.1790167598 3.2775878206 9.5003289273 
H 1.1337684915 2.2713058712 8.4920809737 
H 4.2547762668 1.1371537026 10.4954364055 
H 1.1437888760 4.2745195746 10.4878747408 
O 6.3510325138 0.1632430432 12.6155474018 
O 4.8170991446 1.7303893832 11.0515617053 
H 5.3789699689 1.1401520722 11.6123160249 
O 6.4084378672 3.2587948626 9.4969078760 
H 5.8178985448 3.8216921387 8.9366497795 
H 5.8123418531 2.6960877508 10.0504046538 
H 7.3873132208 2.2728038550 8.5061465841 
H 7.3770584457 4.2473789936 10.5042401388 
H 10.0658757559 2.7072180111 12.0603120856 
H 8.9391626486 3.8187975180 12.0512089539 
H 12.0565669472 2.7158525019 10.0614931167 
H 12.0505905446 3.8384615848 8.9447881974 
O 9.5323839242 0.1649851700 9.5001887586 
H 8.9410358269 0.7253584519 8.9382835991 
O 11.0688266841 1.7418117477 11.0537056340 
H 10.5010818398 1.1551946861 10.4946506622 
H 11.6197074990 1.1434794369 11.6161402602 
H 4.2717080717 5.3922029122 8.5056305338 
O 1.7372693769 4.8352693163 11.0475083674 
H 1.1425430441 5.3936242997 11.6042606251 
O 3.3066980471 6.3902184959 9.5033283901 
H 2.7143829063 6.9529476947 8.9450503936 
H 2.7113236537 5.8309564408 10.0612753046 
H 4.2796242926 7.3770048969 10.5035435188 
H 6.9346398555 5.8035946798 12.0722844140 
O 7.9426063302 4.8021832035 11.0962371230 
O 4.8403140216 7.9665603650 11.0670005443 
H 5.3952320850 7.3689501467 11.6270950232 
O 12.5989599562 6.3976252589 12.5907991994 
H 10.4862689678 5.3931720292 8.5089098830 
H 8.4917121025 5.3692054670 10.5009173209 
O 9.4828349686 6.3499323409 9.5013955673 
H 8.9219568528 6.9391269002 8.9388154335 
H 10.0465444179 6.9467173296 10.0533377653 
O 11.0523783112 7.9417222026 11.0164059213 
H 11.6098588200 7.3854257600 11.6150882943 
H 4.2559510334 11.6203036681 8.5090721509 
O 3.2756375320 12.5980106713 9.4980188599 
H 2.7160839710 10.0513749583 12.0529296046 
H 3.8418282504 8.9394251897 12.0622450020 
H 2.6833511986 12.0370204048 10.0583085888 
O 0.1787934301 9.4860301264 9.4905371678 
H 1.1536562503 8.5036504529 8.5099312241 
O 1.7290712511 11.0415517174 11.0488970924 
H 1.1349096299 11.5993908156 11.6084246476 
H 1.1373474992 10.4805530881 10.4883175844 
H 5.3844057741 10.5093625271 8.5166469745 
H 6.9390271877 12.0550197258 12.0551796893 
O 6.3818267749 9.5341662960 9.5160100315 
H 5.8251939167 8.9386586060 10.0774017332 
H 6.9337519530 8.9397983822 8.9506072508 
O 7.9430653257 11.0894280645 11.0520826126 
H 7.3787622537 10.4931411402 10.4990480246 
O 12.6073858548 12.6035519427 12.5905460958 
O 9.5100915618 9.4997645283 12.5776805955 
H 8.9376643858 12.0607007288 10.0576466390 
H 12.0506211100 8.9283118973 10.0505094669 
H 12.0553183034 10.0501097478 8.9325019844 
H 10.5059704980 11.6207759967 8.5025935080 
H 10.4961776825 8.5083241706 11.6069989164 
H 8.5035535502 10.5007092283 11.6145415390 

