&CONTROL
   calculation      = 'vc-relax'
   tstress          = .true.
   tprnfor          = .true.
   outdir           = './'
   pseudo_dir       = '/home/ppiaggi/QuantumEspresso/pseudos'
/
&SYSTEM
   ecutwfc          = 150
   input_dft        = 'SCAN'
   ntyp             = 2
   nat              = 192
   ibrav            = 0
/
&ELECTRONS
   mixing_beta      = 0.5
   startingpot      = 'atomic'
   startingwfc      = 'atomic+random'
/
&IONS
/
&CELL
/

ATOMIC_SPECIES
O 15.999400004115753 O_ONCV_PBE_sr.upf
H 1.0079400002592869 H_ONCV_PBE_sr.upf

K_POINTS gamma

CELL_PARAMETERS angstrom
12.44308383862907 0.00000000000000 0.00000000000000
0.00000000000000 12.47674655905338 0.00000000000000
0.00000000000000 0.00000000000000 12.47985926091764

ATOMIC_POSITIONS angstrom
O 3.2696674718 3.3098407342 0.1453830373 
H 2.7108827833 2.7162910730 0.7054296262 
O 3.2830503163 0.1474429948 3.2314541212 
H 3.8454891500 0.7028667956 3.8249605299 
H 0.7294357303 2.7206310408 2.7023281569 
H 0.7232538788 3.8358718888 3.8276258545 
O 1.7239369145 1.7412881564 1.7027100248 
H 2.2868489854 1.1515753519 2.2621942465 
H 1.1674738945 1.1438247063 1.1452867009 
H 4.2741969832 4.2841765536 1.1462277488 
H 5.4135473151 2.2603008842 4.2664171897 
H 6.9450431037 0.7070816550 0.6949397000 
O 6.3994977007 3.2353251217 3.2654659767 
H 6.9628248546 3.8251278852 3.8253045220 
H 5.8423951991 3.8318940330 2.7084151752 
O 7.9392230458 1.6853932020 1.6811065268 
H 7.3890553500 2.2554447780 2.2734397518 
O 12.5773747149 3.2797573304 3.2594471545 
H 8.9340418109 2.6854118670 0.7044787494 
H 10.0417168792 3.8145588838 0.7070865010 
H 10.0497329184 0.7044925209 3.8346328915 
H 8.4980004293 1.1270244960 2.2765507270 
H 11.5966615810 4.2655442076 2.2596871107 
H 11.6038427933 2.2793061376 4.2543586281 
H 2.2837339834 5.3749125805 4.2800740282 
H 0.7177753572 6.9217322302 0.7101920071 
O 3.2810975024 6.3783635117 3.3114372471 
H 2.7242316821 6.9384279765 2.7155830018 
H 3.8456417578 5.8245037752 2.7165718464 
O 1.7246312248 7.8986112510 1.7102389516 
H 4.2718222318 7.3863742202 4.2695038652 
O 4.8373327215 4.8387509049 1.7403852951 
H 5.3936415095 5.4002332945 1.1452074592 
O 6.3898561515 6.3870539714 0.1664050976 
O 7.9464821162 7.9798544806 1.6873108514 
H 7.3888838307 7.3877976481 1.1237759444 
O 11.0315493106 4.8179906402 1.6644091552 
H 10.4770416577 5.3835601095 2.2588885821 
H 12.0350275324 5.8090018740 0.7068023203 
O 9.4941625675 6.3821153728 3.2202320598 
H 10.0525097096 6.9415644788 3.8158056595 
H 8.9392576777 5.8185608103 3.8151310771 
H 8.5030367538 7.3839019469 2.2469979740 
O 0.1618419754 12.6134352334 0.1816620766 
H 1.1632719265 8.4919807443 2.2663796101 
H 2.2798947423 8.4915798483 1.1450459092 
H 2.7248357843 12.0614900145 3.8230340360 
O 3.2633380750 9.4583177140 0.1444429633 
H 3.8222989908 10.0612324386 0.6949561418 
O 0.1941177087 9.4983362580 3.2677942408 
H 4.2658543957 11.6309141081 2.2429867306 
H 1.1668599481 10.4936408062 4.2578520058 
O 4.8144776993 11.0380348255 1.6720645120 
H 5.3768376229 11.6318800293 1.1163393309 
O 6.3722301350 9.5028602433 3.2708666773 
H 6.9357265326 8.9455780755 2.6788664128 
H 5.8128441555 10.0606589013 2.6764498728 
H 5.3837748906 8.5107959524 4.2556131346 
H 7.3573246082 10.4950784427 4.2503816315 
O 9.4592380533 12.6091490658 3.2844890798 
H 10.0539387360 12.0559920743 2.7197232967 
H 12.0388559978 8.9437800586 3.8265937172 
H 12.0482833265 10.0667631211 2.7120251011 
H 8.9458597170 8.9394016403 0.6943278537 
O 11.0521721245 11.0702480827 1.7445014455 
H 10.4990329011 10.5065730598 1.1499522831 
H 11.6146268745 11.6279667671 1.1514721415 
H 8.4788982033 11.6121580313 4.2678346862 
H 2.2773355593 4.2469883255 5.3897739487 
O 3.2498454711 3.2448430046 6.3734174128 
H 3.8463088089 2.6907151456 5.8108540868 
H 3.8399501883 3.8119656714 6.9288823378 
O 1.7151358649 1.6956364371 7.9610673337 
H 1.1588897462 1.1350594243 7.3676804638 
H 2.2801212290 2.2512878057 7.3692709771 
O 4.8170018248 1.7015627115 4.8236078950 
H 5.4028826281 1.1433357938 5.3913676450 
O 6.3875002024 0.1620896378 6.4044880168 
O 7.9399295764 1.7373359725 7.9305597264 
H 7.3791116501 1.1363791457 7.3798957548 
O 11.0395617592 1.6892238199 4.8118623071 
H 10.4894954838 2.2845531121 5.3780663465 
H 8.5161640100 4.2721664741 5.3903777585 
H 12.0395920449 0.6928036546 5.8025265887 
O 9.4956098936 3.2811784176 6.3544969878 
H 10.0545903002 3.8368666533 6.9530645031 
H 8.9352364332 2.7181090427 6.9442146314 
O 1.6867795667 4.8175299308 4.8379287656 
H 0.7130214374 5.8164444683 5.8317096749 
O 1.7072720062 7.9633063186 7.9629467482 
H 1.1492590536 7.3978690240 7.3750383579 
O 7.9539038405 4.8254626791 4.7915205548 
H 7.3943269724 5.3889186350 5.3806388953 
O 4.8313065102 7.9530874226 4.8571646206 
O 4.8274517942 4.7953004775 7.9272511304 
H 5.3865604728 5.3867782734 7.3642192656 
O 6.3871752168 6.3550566643 6.3823012209 
H 6.9485437292 6.9414445809 6.9481935778 
H 5.8315662098 6.9544457130 5.8253050721 
O 7.9426156844 7.8999071336 7.9487183993 
O 12.5879989327 6.4116185822 6.3802150354 
O 11.0354482948 7.9388971185 4.7892204091 
H 11.5913730417 7.3766669632 5.3838954064 
O 11.0452957568 4.8223905281 7.9276108224 
H 12.0367713141 5.8213791060 6.9505157189 
O 0.1844065071 12.6045569569 6.3609533268 
O 1.7567798807 11.0581145806 4.8164879022 
H 1.1568553943 11.6140530920 5.3735865750 
O 3.2773402272 9.5022403346 6.4175514803 
H 3.8375322248 8.9434696343 5.8230405177 
H 2.7201817243 10.0632595178 5.8229367156 
H 2.2736603834 8.5137064450 7.3662930661 
H 4.2607131313 10.4904560338 7.4073261037 
O 7.9112877665 11.0509516943 4.8522430306 
H 5.8258744308 12.0502798511 6.9654039750 
H 6.9333464199 12.0415876360 5.8345730354 
O 4.8512726518 11.0459380407 7.9743708998 
H 8.4947782446 8.4972268654 7.3855068446 
H 10.4740492985 8.4966642808 5.3816598967 
H 12.0282945896 12.0530918746 6.9229673644 
O 9.4741043066 9.4700435898 6.3857226052 
H 10.0320905948 10.0695138475 6.9402781343 
H 8.9095209433 10.0581366630 5.8255247797 
O 11.0312101713 11.0751917703 7.9057658972 
H 3.8286894104 2.7157742341 12.0655319609 
H 2.7004333183 0.7042508759 8.9523111605 
H 3.8127427772 0.7145207846 10.0785050572 
H 0.7328636037 3.8269552751 10.0596041156 
H 0.7335700181 2.7035745560 8.9415252855 
H 2.2792890298 4.2768510170 11.6190438344 
O 6.3553301739 0.1581992426 12.6009679309 
O 4.7887591207 1.7173941366 11.0650583534 
H 5.3756749660 2.2731423664 10.4958055957 
H 5.3886332614 1.1572240036 11.6178513256 
O 6.3728041611 3.2649817389 9.5155604375 
H 6.9360541768 2.7039765848 8.9271820281 
H 5.8199574559 3.8273277314 8.9182544514 
H 7.3699384357 4.2467924602 10.4994025145 
H 11.6052570670 4.2585083110 8.5162662178 
H 12.0480405243 0.6952919322 12.0658018783 
O 9.4887421376 3.2496390794 12.5915810574 
O 12.5848732659 3.2616966305 9.5034153788 
O 9.4930588125 0.1514084816 9.4705874922 
H 10.0557645195 0.7078366073 10.0645905054 
H 8.4974674059 1.1513236795 8.4992790724 
O 11.0487043923 1.6729049889 11.0575617291 
H 10.4917779726 2.2658693010 11.6202103125 
H 11.6141347940 2.2637591487 10.5022077865 
H 8.4871189031 4.2344048654 11.6238981555 
H 4.2670383248 5.3904771810 8.4826005464 
O 1.7211702250 4.8375343723 11.0252359203 
H 1.1541497358 5.3871082590 11.6214723512 
O 3.2982061031 6.3944457063 9.4878043128 
H 2.7078905805 6.9607486023 8.9321592266 
H 2.7027826921 5.8402806583 10.0511284207 
H 4.2636828217 7.3805589437 10.4877472777 
H 6.9406524395 5.8131466385 12.0585634176 
H 5.8251097810 6.9372599218 12.0486633269 
O 7.9296028602 4.8323831081 11.0667338697 
O 4.8576457415 7.9306956779 11.0571765454 
H 10.4847031437 5.3776883227 8.5242190934 
O 12.5998636049 6.3661205295 12.5949533148 
O 9.5174598107 6.3734640608 9.5185187958 
H 8.9261498715 5.8112509382 10.0773829347 
H 8.9245217417 6.9303465689 8.9555888547 
O 11.0578511868 7.9671095596 11.0590034864 
H 11.6093980282 7.3719938703 11.6244654947 
H 10.4883337142 7.3746900520 10.5082770992 
H 0.7179060732 12.0497390983 12.0667658037 
H 2.6992784178 10.0451753500 12.0629452467 
O 3.2529846248 12.5932905227 9.5241311258 
H 0.7072949418 8.9576628548 8.9386519330 
O 1.6987010703 11.0559345487 11.1003223308 
H 1.1370597879 10.5036186450 10.5010278587 
H 2.2588225964 11.6222132055 10.5134687620 
H 4.2573282873 11.6064239307 8.5307929038 
H 4.2638004427 8.4901373125 11.6160720550 
H 7.3810608209 8.4920881193 8.5081005094 
H 6.9514318773 12.0707873411 12.0494329284 
O 6.4206193447 9.4923299587 9.5104809297 
H 5.8221519187 10.0515445100 8.9549813772 
H 5.8306349744 8.9294121952 10.0702085659 
O 7.9524184457 11.0890113163 11.0608785087 
H 7.3938599950 10.4917974363 10.5044894708 
O 9.5074752341 9.5368917839 12.6196995436 
H 11.5851653726 10.5139499601 8.5021041841 
H 10.4727504544 11.6386202842 8.4978241517 
O 12.5884035031 9.5432111337 9.5030564159 
H 10.0661004838 8.9450533777 12.0575249175 
H 8.9383470032 12.0618048799 10.0626916723 
H 12.0358091508 8.9421871151 10.0618541933 
H 8.5140481614 10.4995198501 11.6230319651 

