&CONTROL
   calculation      = 'vc-relax'
   tstress          = .true.
   tprnfor          = .true.
   outdir           = './'
   pseudo_dir       = '/home/ppiaggi/QuantumEspresso/pseudos'
/
&SYSTEM
   ecutwfc          = 150
   input_dft        = 'SCAN'
   ntyp             = 2
   nat              = 192
   ibrav            = 0
/
&ELECTRONS
   mixing_beta      = 0.5
   startingpot      = 'atomic'
   startingwfc      = 'atomic+random'
/
&IONS
/
&CELL
/

ATOMIC_SPECIES
H 1.0079400002592869 H_ONCV_PBE_sr.upf
O 15.999400004115753 O_ONCV_PBE_sr.upf

K_POINTS gamma

CELL_PARAMETERS angstrom
12.46122438273709 0.00000000000000 0.00000000000000
0.00000000000000 12.46130139880867 0.00000000000000
0.00000000000000 0.00000000000000 12.46986039646945

ATOMIC_POSITIONS angstrom
H 0.7034197635 0.7023891846 0.7074854311 
O 3.2799642378 3.2331064126 0.1708672391 
H 3.8412021521 3.8253964233 0.7292532786 
H 3.8336410773 0.6925901347 3.8239661653 
H 0.7086460516 2.6931950360 2.6895343440 
O 1.6812861967 1.6829705956 1.6938857771 
H 2.2782947802 2.2517567710 1.1474963889 
H 2.2721006450 1.1260165196 2.2581155294 
H 1.1440229802 4.2587450211 4.2460632455 
H 5.3931637704 2.2700802580 4.2669291661 
O 6.3970211740 3.2627618957 3.3018567498 
H 5.8402576501 3.8290265897 2.7121400880 
H 6.9563617590 2.7078105070 2.7038038859 
O 7.9503258693 1.7188874083 1.7295022538 
H 7.3956721628 1.1555122803 1.1359669007 
H 7.3973465615 4.2534950098 4.2582044055 
O 12.6114443320 3.2585776151 3.2768654644 
O 12.5608093571 0.1526346465 0.1485143251 
H 12.0526235137 3.8172429249 2.6810175483 
O 9.4785034304 3.2885656168 0.1635239858 
H 10.0479482273 0.7230231374 3.8476283398 
H 8.9347062422 0.7307916701 2.7224190945 
H 8.5025099114 2.2855634605 1.1350805982 
H 10.4891714629 4.2709109496 1.1327049070 
H 11.6187918526 2.2765113213 4.2636531256 
H 4.2778384866 5.3958409219 2.2673548906 
O 0.1754022068 6.4012950418 0.1575130958 
O 3.2993879828 6.3889168069 3.2597411620 
H 2.7051133488 6.9475633952 2.6992848521 
H 2.7062565862 5.8230979481 3.8122859130 
O 1.7421456988 7.9437511213 1.7091719965 
H 1.1544658397 7.3769274085 1.1501292014 
H 4.2609905172 7.3742527023 4.2618363778 
O 4.8441993281 4.7998299837 1.7174458985 
H 5.3980594170 5.3907319512 1.1492390877 
O 6.3843710369 6.3888116490 0.1754687607 
O 7.9606222253 7.9366257839 1.7160105793 
H 7.3674186865 7.3782940889 1.1546555106 
O 11.0870587113 4.8151114509 1.7018531885 
H 10.4994747906 5.3819854651 2.2600179464 
H 12.0689094542 5.8110736282 0.7116848663 
O 9.5109008521 6.3480517341 3.2599381405 
H 10.0642610226 6.9467529857 3.8209014027 
H 8.9386739428 6.9363207957 2.7082917574 
H 8.5162281201 5.3730313668 4.2610545644 
O 3.2741142814 12.5931088719 3.2326690934 
H 2.7121491658 12.0359843099 3.8270017491 
H 3.8278505502 10.0645332635 0.7072378231 
H 2.7076836071 8.9443706913 0.7049035404 
H 0.6993042124 10.0657932201 3.8193131186 
H 1.1441441312 8.5035260423 2.2631161315 
H 4.2646462586 11.6101813704 2.2552644502 
H 5.8338897399 12.0469145549 0.6922823330 
O 4.8248007886 11.0508180450 1.6613193312 
H 5.3801897823 10.4912804175 2.2588498224 
O 6.3693760370 9.5023763438 3.2369759872 
H 5.8075265580 8.9428651238 3.8284076470 
H 6.9274911153 10.0603636493 3.8339181542 
H 7.3697134738 8.4974191895 2.2764094900 
H 11.6146793295 8.5011192696 4.2530368050 
O 12.6022829698 9.4730485290 3.2577941507 
O 9.4793079315 12.5949665744 3.2928783838 
H 12.0339685878 10.0668738283 2.7076519102 
H 10.0505890610 10.0528139846 0.7276051707 
H 8.9377910683 8.9286781245 0.7200217748 
O 11.0274550803 11.0374869368 1.7264056175 
H 10.4716215917 11.6296872086 2.2911399238 
H 11.5860078552 11.6301637787 1.1651887520 
H 8.4805277044 11.6266460045 4.2768398800 
H 4.2656090891 2.2695508647 5.3788126116 
O 0.1768289226 0.1739570086 6.3538363127 
H 0.7390238215 0.7298539555 6.9478161652 
O 3.2622391095 3.2728908391 6.3434621085 
H 3.8237289980 3.8391602646 6.9278173381 
H 2.7130343426 2.7153651189 6.9487760911 
O 1.7291089070 1.7279095153 7.9259610335 
H 2.2603793344 4.2537730763 5.3695490786 
O 4.8294173248 1.6771638084 4.8229878621 
H 6.9344445470 0.7154550708 6.9428544166 
H 5.8177334221 0.7195965063 5.8209668433 
O 7.9116377326 1.7137012938 7.9440773999 
H 8.5017213783 2.2736905953 7.3813005260 
O 11.0349658563 1.7181443233 4.8339723570 
H 11.6360465745 1.1647513983 5.3911062598 
O 9.4989772490 3.2753384786 6.4249523471 
H 10.0652510151 2.7175409735 5.8366419203 
H 8.9446578660 3.8324634092 5.8228048575 
H 10.4976926312 4.2681550057 7.3904666566 
O 1.7036211882 4.8487016923 4.8087019018 
H 0.7067842645 5.8151909350 5.8090181198 
O 1.6884145873 7.9323559647 7.9665708738 
H 1.1357380308 7.3705417135 7.3679386806 
O 7.9574354869 4.8118528981 4.8536176241 
O 4.8148133800 7.9691155984 4.8258036472 
H 5.3805617498 7.3792259133 5.3816142107 
O 4.7916386240 4.8436195844 7.9299250536 
H 5.3905820954 5.3980012883 7.3704718459 
O 6.3593858679 6.3779674910 6.3747279212 
H 6.9532719212 5.8168232198 5.8183030126 
H 6.9513083553 6.9401737475 6.9338267052 
O 7.9399048752 7.9376557991 7.9041974017 
O 12.6083356723 6.3742118446 6.4030059852 
O 11.0574827070 7.9057470568 4.8135244170 
O 11.0614085268 4.8287254002 7.9792868286 
H 11.6192521674 5.3837570366 7.3800830504 
H 12.0494511018 6.9346389583 5.8092276292 
O 1.7045882398 11.0580023831 4.7886558062 
H 1.1552249233 11.6294641349 5.3805724839 
H 2.2609946891 10.4986014817 5.3857377674 
O 3.2248408791 9.5018393278 6.3858522755 
H 3.8147597034 8.9386029618 5.8272753633 
H 3.8217880510 10.0567013711 6.9474684144 
H 2.2500228102 8.4944200925 7.3777178773 
O 7.9247858839 11.0237430304 4.8301965837 
H 7.3619104306 11.6097603607 5.3938266672 
O 6.3680593395 12.5852942588 6.3886294437 
O 4.7888477081 11.0415348228 7.9384041391 
H 5.3770736065 11.6087524363 7.3814546903 
H 10.4967956360 8.4991650911 5.3724094297 
H 12.0850031029 12.0687893839 6.9462095021 
O 9.5299614761 9.4958850085 6.3706444311 
H 8.9334923696 10.0575333583 5.8166050190 
H 8.9388980374 8.9392075101 6.9348535073 
O 11.0800229099 11.0870463933 7.9327761606 
H 10.5178588803 10.4960266930 7.3750008831 
H 2.2780283583 1.1584339180 8.5211264645 
H 1.1628025655 2.2810248621 8.5180310094 
H 2.7231039828 3.8273940896 12.0787738507 
O 3.2533081598 0.1724691712 9.5078910136 
O 0.1781132470 3.2749761062 9.5205556915 
H 1.1588198664 4.2577914346 10.5159739383 
H 4.2691373472 2.2597136685 11.6316732674 
H 4.2567327666 1.1435781677 10.5105415016 
H 5.8346504496 0.7061921484 12.0469956112 
H 5.3782714509 4.2768463797 8.4882252150 
O 4.8559609329 1.7027495675 11.0632830580 
O 6.3718209227 3.2961740664 9.4895028631 
H 6.9372247040 2.7068598358 8.9310683807 
H 5.8168300565 2.7007704531 10.0500950371 
H 7.3613781640 4.2753259083 10.4805754678 
H 8.5066655096 1.1482179128 8.4952840276 
H 10.0322966775 2.7238639674 12.0387538847 
H 8.9132711743 3.8444834004 12.0420399898 
H 12.0398443704 2.7130618320 10.0706417607 
H 12.0527808126 3.8348706912 8.9541111553 
O 9.5098886045 0.1772830560 9.4832044844 
O 11.0333123420 1.7447359726 11.0603115862 
H 10.4826121683 1.1525820051 10.4902687781 
H 11.5894717758 1.1498561992 11.6214169556 
H 0.7330537535 5.8052437923 12.0680191370 
O 1.7271922367 4.8139295302 11.1040838952 
H 2.2773241568 5.3773350514 10.5049003759 
O 3.2475920469 6.3812612598 9.5300922188 
H 3.8127041404 5.8304305880 8.9338974792 
H 2.6840061474 6.9374216237 8.9375055092 
H 4.2506702449 7.3870083289 10.4980220988 
H 6.9360054408 5.8302780217 12.0426773510 
H 5.8172475483 6.9479647088 12.0597069969 
O 7.9147126677 4.8402352214 11.0752966383 
O 4.8454709310 7.9463356630 11.0549223291 
H 8.5024876522 7.3810213165 8.4963566561 
H 8.4853752844 5.3907253420 10.4837053114 
O 9.4745198159 6.3840720869 9.5013836230 
H 10.0618113333 6.9425064321 10.0670841253 
H 10.0719068834 5.8235063013 8.9464752407 
O 11.0615779602 7.9414552506 11.0431824378 
H 11.6269897100 7.3790569391 11.6262631064 
H 0.6843701960 12.0488184560 12.0571401801 
O 3.2694464911 9.5028166763 12.5830745439 
H 3.8112094683 12.0404095713 8.9484172631 
H 2.6895301380 12.0415889169 10.0663810396 
H 0.6972672490 8.9280807606 8.9390327901 
O 1.6972098213 11.0828252180 11.0508433357 
H 2.2621460871 10.4968283431 11.6126380983 
H 1.1428311844 10.4828011033 10.4922452447 
H 4.2563972363 8.5099266347 11.6155879045 
O 6.4285131159 12.6053958910 12.6033890328 
H 7.3836671101 8.4979619141 8.5007530075 
H 5.3865727268 10.4877837834 8.4977372262 
O 6.3994189912 9.4905300859 9.4696502466 
H 5.8350963467 8.9371820677 10.0642470368 
H 6.9629244160 10.0479144610 10.0615960269 
O 7.9665827968 11.0415071586 11.0233011650 
H 7.4042634054 11.5999726760 11.6152339138 
O 12.6061434780 9.5250342846 9.5023756602 
O 9.5079397648 9.4811498177 12.5999551481 
H 10.0800849337 12.0516221975 8.9276912719 
H 8.9603723271 12.0399148707 10.0466603935 
H 12.0456739467 8.9354345106 10.0656665975 
H 11.6292294331 10.4907728105 8.5012261974 
H 10.5031860881 8.4937248134 11.6457830992 
H 8.5207056829 10.4784565440 11.6184814429 

