&CONTROL
   calculation      = 'vc-relax'
   tstress          = .true.
   tprnfor          = .true.
   outdir           = './'
   pseudo_dir       = '/home/ppiaggi/QuantumEspresso/pseudos'
/
&SYSTEM
   ecutwfc          = 150
   input_dft        = 'SCAN'
   ntyp             = 2
   nat              = 192
   ibrav            = 0
/
&ELECTRONS
   mixing_beta      = 0.5
   startingpot      = 'atomic'
   startingwfc      = 'atomic+random'
/
&IONS
/
&CELL
/

ATOMIC_SPECIES
H 1.0079400002592869 H_ONCV_PBE_sr.upf
O 15.999400004115753 O_ONCV_PBE_sr.upf

K_POINTS gamma

CELL_PARAMETERS angstrom
12.46843691225989 0.00000000000000 0.00000000000000
0.00000000000000 12.45023105889076 0.00000000000000
0.00000000000000 0.00000000000000 12.46912623284818

ATOMIC_POSITIONS angstrom
H 3.8440891857 3.8202025564 0.7111146011 
H 2.7207746395 2.7066717341 0.7103233593 
H 3.8225469825 0.7299283573 3.8268356052 
H 2.6991486645 0.7315604291 2.7071282221 
H 0.7023030328 3.8486562256 3.8200302237 
O 1.7323774687 1.7155259911 1.7145593494 
H 1.1450794637 2.2838936293 2.2713604162 
H 1.1345516742 1.1576557988 1.1578687714 
H 5.3864768828 4.2528085514 2.2791986844 
H 5.3831674853 2.2745486586 4.2786481856 
H 6.9299880934 0.7171311163 0.7258004364 
O 6.3499499372 3.2669420120 3.2889462011 
H 6.9464598318 2.7071100063 2.7310672061 
H 6.9429494314 3.8302456944 3.8453171354 
O 7.9062508419 1.7163068416 1.7351886714 
O 12.6098628765 3.2531696816 3.2638242612 
H 8.4975885088 1.1515554817 2.2923077917 
H 8.5020498676 2.2699328254 1.1724086003 
H 12.0462718141 3.8412817101 2.7030637946 
O 9.5025426670 3.2571603536 0.1875559104 
H 10.0703580181 0.7116586918 3.8321540029 
H 10.4868252242 4.2618686545 1.1399777994 
H 11.6268324659 2.2623764670 4.2582875546 
H 4.2670550513 5.3736542173 2.2642720676 
H 0.7145391246 6.9285288909 0.7004049746 
O 3.3024385685 6.3763929244 3.2456055561 
H 2.7092208550 5.8247313427 3.8136591101 
H 2.7083493370 6.9397178160 2.6905159304 
O 1.7108788765 7.9081610800 1.7004779798 
H 4.2764615984 7.3712688134 4.2576413165 
O 4.8323250650 4.8104255357 1.6785949980 
O 6.3931563932 6.3938150881 0.1514520237 
H 5.8339784588 5.8007724298 0.7121569951 
O 7.9641255001 7.9565275999 1.7010219867 
H 7.3787489593 7.3850346922 1.1455635054 
H 8.5112336813 5.3831153769 4.2637678595 
O 11.0423712791 4.8279413971 1.7328414117 
H 11.6070292311 5.3821376655 1.1393584041 
O 9.5021616036 6.3833156504 3.2914834240 
H 10.0564175203 5.8197423827 2.6951995743 
H 8.9428113884 6.9452936724 2.7021522498 
H 10.4993445414 7.3709281529 4.2689924318 
H 2.2640529231 8.5041101913 1.1366557234 
H 1.1518757277 8.4985537643 2.2628394152 
O 3.2639714350 12.5893351659 3.2633614737 
H 3.8188698850 10.0617177516 0.7051200181 
O 0.1819886452 9.4995920621 3.2720915191 
H 4.2565665104 11.6207668138 2.2613464094 
H 1.1651240499 10.4845732268 4.2581045197 
H 2.2841925263 11.6048001416 4.2576937198 
H 5.8109283916 12.0484203962 0.7150694878 
O 4.8144837123 11.0545240939 1.6725044041 
H 5.3745856546 10.5010794583 2.2730176559 
O 6.3649645491 9.5151338119 3.2349485837 
H 6.9278806133 10.0733842890 3.8265867676 
H 5.8154845255 8.9470484430 3.8303195099 
H 7.3653636882 8.5125875914 2.2573644562 
O 12.6137902832 12.6041685125 0.1923159813 
O 9.4708058723 12.6023393481 3.2768700215 
H 8.5074035647 11.6201657226 4.2649334250 
H 10.0603177531 12.0446061257 2.7115462561 
H 12.0561663691 8.9390724286 3.8286467042 
H 12.0604224303 10.0567590544 2.7062901145 
H 8.9288665737 8.9380609540 0.7063319605 
O 11.0619028605 11.0452398194 1.7362302929 
H 10.5022996588 10.4864692948 1.1425106256 
H 11.6204387473 11.6092598995 1.1441917427 
H 2.2600760326 4.2727927223 5.3755347075 
H 0.7128432130 0.7117645088 6.9338414068 
O 3.2399969163 3.2944879436 6.3696707094 
H 2.6806179276 2.7067541314 6.9346014615 
H 3.8079796362 2.6977532151 5.8210220596 
O 1.6878228072 1.7042210246 7.9104342365 
H 4.2395775704 4.2602382183 7.3763802650 
O 4.7853822588 1.7171279357 4.8363566585 
H 5.3750982961 1.1519450205 5.3946666886 
O 6.3744289564 0.1833785332 6.3868919450 
O 7.9646302150 1.7272980304 7.9365104780 
H 7.3764442683 1.1582223201 7.3814800260 
H 8.5161280877 4.2626503204 5.3841269792 
O 11.0375358992 1.6979523127 4.8172269127 
H 11.6342383199 1.1385932043 5.3751032310 
O 9.5072497610 3.2910882393 6.3778995961 
H 10.0636315300 2.6936662894 5.8204537934 
H 8.9405429883 2.7050055233 6.9386460368 
H 10.4975922915 4.2635404749 7.3796480131 
O 1.7060780046 4.8414458202 4.7851471485 
H 1.1495112380 5.3991862251 5.3833590409 
O 0.1614507458 6.3783769150 6.3652502777 
H 0.7139316148 6.9392916754 6.9627356633 
O 1.7109710280 7.9235890366 7.9645521390 
O 7.9211821331 4.8290109099 4.8322968844 
O 4.8370500327 7.9590701707 4.8209057940 
H 5.3939368400 7.3623790676 5.3812700524 
O 4.8333975237 4.8190292910 7.9359576731 
O 6.3750420757 6.4032844487 6.3799033845 
H 6.9398047778 5.8116662271 5.8234971106 
H 5.8109430108 5.8118854964 6.9363640925 
O 7.9624868073 7.9467865373 7.9295110237 
H 7.3699994501 7.3816130904 7.3752968090 
O 11.0611942327 7.9637322722 4.8270242215 
H 11.6184965661 7.3728943439 5.3901696309 
O 11.0913468014 4.8203052320 7.9414871649 
H 12.0672464069 5.8155057735 6.9531773408 
H 2.2697374033 8.5113387436 7.3984328943 
O 1.7327785211 11.0370150388 4.8514364767 
H 0.7228991380 12.0391251073 5.8158630235 
O 3.2760874078 9.4921266725 6.4149028468 
H 2.7188991465 10.0481825230 5.8144509355 
H 3.8359941602 8.9280132776 5.8270501173 
H 4.2695122471 10.4818948575 7.3802854023 
O 7.9086752829 11.0628964309 4.8226321474 
H 6.9373900422 12.0457473888 5.8241958882 
H 5.8214362376 12.0372083087 6.9505684659 
O 4.8279978873 11.0756773224 7.9416899014 
O 12.5940383025 12.5990107958 6.3700533626 
H 8.4963116444 10.4970019481 5.3808450988 
O 9.5001982031 9.5213567279 6.3774236167 
H 10.0621832024 8.9304557851 5.8172668125 
H 8.9379097632 8.9276574970 6.9347928467 
O 11.0318205176 11.0724410586 7.9598748195 
H 10.4788365989 10.5021352058 7.3696795071 
H 11.6011061727 11.6189253608 7.3637324018 
H 1.1333831286 2.2650347389 8.5076503967 
H 2.2636745045 1.1554970008 8.4988828474 
O 3.2832332263 3.2616247376 12.5853745186 
O 3.2447630637 0.1734102905 9.4866739105 
H 3.8395583052 0.7272242507 10.0512954710 
H 0.7097437291 3.8249069472 10.0652849666 
H 4.2741783530 2.2733062590 11.6155491179 
H 2.2841456858 4.2648364807 11.6137504351 
O 6.3741779448 0.1608776018 12.5958267264 
O 4.8351709190 1.7132039329 11.0234153476 
H 5.3916564274 1.1526113910 11.6192441064 
O 6.4107819136 3.2712868393 9.4829396024 
H 5.8218524724 2.7096099557 10.0461419064 
H 5.8115705027 3.8293775683 8.9278166548 
H 7.3663337880 2.2856160539 8.4940528570 
H 7.4005577695 4.2578961913 10.4811402554 
O 12.6134753025 3.2328725063 9.5094536490 
H 12.0476349222 0.7084730574 12.0682955226 
H 8.9501248656 3.8143930455 12.0536928489 
H 10.0654101722 2.6932495573 12.0700066923 
H 12.0525781124 3.8243154517 8.9496773664 
O 9.5007944035 0.1739148603 9.5312486858 
H 8.9400847457 0.7394100551 8.9447378539 
O 11.0595402772 1.6988842493 11.0998099236 
H 11.6200684387 2.2614551114 10.5094186154 
H 10.4959589855 1.1471689431 10.5002666375 
H 0.7144782287 5.8083923068 12.0518270333 
O 1.6858761039 4.8164699718 11.0520918454 
H 2.2738563355 5.3826090141 10.4928994203 
O 3.2641989978 6.3558343125 9.4954748561 
H 3.8272121515 6.9401618434 10.0600660026 
H 2.7016625740 6.9562241910 8.9451592143 
H 4.2413829774 5.3790943549 8.4976554432 
H 6.9564164592 5.8038832862 12.0631069941 
O 7.9654526485 4.8086243452 11.0772096184 
O 4.8290226561 7.9301007617 11.0412221158 
H 5.3896585436 7.3721877003 11.6345268954 
O 12.5897304259 6.3702039688 12.6091037157 
H 10.4996589688 5.3878536905 8.4953437959 
H 8.5210477004 5.3735329451 10.4864075366 
O 9.5093344035 6.3626076602 9.4810921126 
H 8.9434579288 6.9517400601 8.9237589334 
H 10.0649890766 6.9574497815 10.0429974602 
O 11.0599866711 7.9422370440 11.0215689647 
H 11.6185896006 7.3800869680 11.6119927205 
O 3.2594672527 9.4684158859 12.6135891595 
H 1.1453623846 8.5204569124 8.5138926359 
H 0.7056747039 12.0501799762 12.0635396457 
H 2.7020112664 10.0611766847 12.0522865501 
H 3.8352583877 12.0561639727 8.9324362790 
O 0.1616724807 9.5200386997 9.4964264871 
H 4.2673669563 8.4929181062 11.6295644907 
O 1.7053670000 11.0696260245 11.0804787288 
H 1.1403709116 10.5164448254 10.4862913640 
H 2.2641240328 11.6305605517 10.4880586516 
H 5.3854795235 10.4828630898 8.5031636481 
O 6.3816539073 9.4795923697 9.4786719446 
H 5.8201777940 8.9218156871 10.0726918972 
H 6.9374086149 10.0444926352 10.0699394690 
H 7.3712609961 8.4974441124 8.5002726431 
O 7.9415557374 11.0287487842 11.0547803632 
H 7.3794100628 11.6140267915 11.6190269151 
O 9.5276361863 9.4902843262 12.6132079933 
H 8.9404218723 10.0553069404 12.0532712242 
H 10.0546732744 12.0672832964 8.9282997487 
H 12.0363000219 10.0774577606 8.9358798007 
H 12.0398415847 8.9553827219 10.0540974246 
H 10.4972947305 8.4969161404 11.6169671061 
H 8.4999416184 11.6273295013 10.5000879492 

