&CONTROL
   calculation      = 'vc-relax'
   tstress          = .true.
   tprnfor          = .true.
   outdir           = './'
   pseudo_dir       = '/home/ppiaggi/QuantumEspresso/pseudos'
/
&SYSTEM
   ecutwfc          = 150
   input_dft        = 'SCAN'
   ntyp             = 2
   nat              = 192
   ibrav            = 0
/
&ELECTRONS
   mixing_beta      = 0.5
   startingpot      = 'atomic'
   startingwfc      = 'atomic+random'
/
&IONS
/
&CELL
/

ATOMIC_SPECIES
H 1.0079400002592869 H_ONCV_PBE_sr.upf
O 15.999400004115753 O_ONCV_PBE_sr.upf

K_POINTS gamma

CELL_PARAMETERS angstrom
12.43673888119885 0.00000000000000 0.00000000000000
0.00000000000000 12.47415028925779 0.00000000000000
0.00000000000000 0.00000000000000 12.48737785069034

ATOMIC_POSITIONS angstrom
H 0.7391884318 0.6917547257 0.6937291933 
H 3.8368002553 3.8202326220 0.7018516269 
H 2.7276260273 0.6978642556 2.6981351406 
H 0.7168201572 3.8147348762 3.8086029559 
O 1.7264187031 1.6685668653 1.6863462493 
H 2.2877748465 2.2603357970 1.1264978393 
H 1.1649175766 2.2638133787 2.2417318180 
H 4.2772847452 1.1401944251 4.2750757002 
H 5.3889888116 4.2582215387 2.2683151259 
O 6.3547003339 0.1470412972 0.1416043436 
H 6.9440055713 0.7139496355 0.6977346800 
O 6.3831246707 3.2674799181 3.2422593342 
H 6.9435823531 3.8281594038 3.8330620516 
H 5.8262350117 2.7089354817 3.8393331014 
O 7.9300197427 1.7215488619 1.6700624042 
H 7.3719930767 2.2769335025 2.2686932342 
O 12.5950654131 3.2547174123 3.2143880473 
H 12.0355189174 2.6952689555 3.8069119367 
H 8.9188491481 2.7139185671 0.6973387049 
O 9.4759054323 0.1723827142 3.2518417261 
H 8.4871843925 1.1541603467 2.2580579450 
H 10.4737763468 1.1406186594 4.2586353483 
H 10.4727571908 4.2681288889 1.1304884628 
H 11.5932474205 4.2601062513 2.2469074809 
H 4.2694831822 5.3768562963 2.2595555752 
H 2.2684181057 5.3758169800 4.2454863900 
H 0.7117082368 6.9496152561 0.7040922518 
O 3.2675641755 6.3494232946 3.2505845750 
H 3.8253452206 6.9359651712 3.8196082019 
H 2.7132861599 6.9503451381 2.6936203481 
O 1.7192121496 7.9201038402 1.7035232743 
O 4.8299388037 4.8135550550 1.6706000419 
H 5.8256764319 5.8125915874 0.6831809057 
O 7.9230937738 7.9441663931 1.7249058014 
H 7.3707956429 7.3843604388 1.1251868214 
O 11.0350252485 4.8579182589 1.6912169233 
H 8.5019018773 5.3963240166 4.2705449955 
H 12.0301020004 5.8287347353 0.6991958004 
O 9.4826080214 6.4024758252 3.2885247768 
H 10.0358852635 5.8387584051 2.6948028373 
H 8.9173453709 6.9575128545 2.6960857136 
H 10.4781899418 7.3926735021 4.2656024051 
O 3.2837928394 12.6139949838 3.2943664561 
H 1.1622090175 8.5108381989 2.2683254836 
H 2.2801588346 8.5162679410 1.1489499581 
H 3.8444749559 12.0521341691 2.7032706133 
O 3.2868289052 9.5106843736 0.1710239316 
H 0.7231994836 10.0686881869 3.8313307875 
H 4.2715126989 10.5001858774 1.1373429022 
H 2.2905962358 11.6210862265 4.2655758668 
H 5.3722474844 8.4957562955 4.2565619162 
O 4.8282742581 11.0603394808 1.7348036129 
H 5.3903655739 11.6194062399 1.1433889543 
O 6.3721332737 9.4920131992 3.2931768012 
H 5.8160742841 10.0576154036 2.7017252995 
H 6.9292192922 8.9345616820 2.6949712575 
H 7.3730357509 10.4856648884 4.2549068964 
O 12.5801030497 12.6007357073 0.1414186507 
O 12.5993133741 9.5063862476 3.2422013091 
H 10.0353183684 12.0542781915 2.6914848314 
H 8.9188223744 12.0520784147 3.8130633020 
H 12.0429803409 8.9467678247 3.8384529019 
O 9.4788420171 9.4759542522 0.1485734678 
H 10.0454316126 10.0669537739 0.7044032636 
H 8.4837541378 8.5099334158 1.1370490072 
O 11.0132743484 11.0604721152 1.6919672106 
H 11.6129319386 11.6151558384 1.1337442003 
H 11.5995606440 10.5023323975 2.2590881602 
H 2.2787530274 4.2613835311 5.3679269467 
O 0.1656789699 0.1524494608 6.4148014108 
O 3.2487615519 3.2843903234 6.3737205703 
H 3.8409400664 2.7131987647 5.8241237047 
H 3.8422849594 3.8399954090 6.9361051718 
O 1.7065693856 1.7205779130 7.9687030857 
H 1.1514203466 1.1579377986 7.3730436568 
H 2.2671055320 2.2802821802 7.3779007077 
O 4.8334267699 1.7331431645 4.8376330785 
H 5.3971967732 1.1394370500 5.3942039695 
O 6.3925606079 0.1711189869 6.3691553026 
O 7.9480233425 1.6996132551 7.9683209397 
H 7.3930980823 1.1376919658 7.3737742461 
O 11.0699068184 1.6999876544 4.8144286950 
H 10.4814886975 2.2619133236 5.3772236412 
H 12.0407754812 0.7085585459 5.8204099407 
O 9.4967090225 3.2307202037 6.3822395355 
H 10.0551902726 3.8251195659 6.9419762944 
H 8.9396196692 3.8259791768 5.8213389570 
H 8.5075088046 2.2619758025 7.3772159604 
O 1.6796363602 4.8124978248 4.8058246624 
O 0.1676692808 6.3751938129 6.4041869232 
H 0.7180556903 5.8123474684 5.8056516742 
O 1.7572918747 7.9259177697 7.9553510862 
H 1.1683633535 7.3670494251 7.3915855830 
O 7.9502713374 4.7989505093 4.8333860570 
H 7.3860503603 5.3888642333 5.3931451998 
O 4.8169070972 7.9018397913 4.8199291818 
O 4.8404906206 4.8330740221 7.9228745097 
O 6.4131671716 6.3784066355 6.3771196040 
H 5.8173370597 6.9356299166 5.8184041589 
H 5.8245296020 5.8233916453 6.9468193857 
O 7.9366841618 7.9756259485 7.9339711037 
H 7.3761414931 7.3805477707 7.3772556330 
O 11.0741794459 7.9476175679 4.8267629928 
O 11.0411455642 4.7954579404 7.9411610136 
H 11.6032992787 5.3823323063 7.3773293349 
H 12.0436127426 6.9403625242 5.8178357780 
H 4.2592938918 8.4952195691 5.3817867572 
O 1.6966794636 11.0655842379 4.8291338951 
H 2.2875013033 10.5026088016 5.3869219278 
H 0.7259835932 12.0677672816 5.8216786085 
O 3.2821203966 9.4976551410 6.3610993921 
H 3.8444531478 10.0600592852 6.9496475164 
H 2.7276519271 8.9376716047 6.9576080375 
O 7.9324652702 11.0826214270 4.8116796076 
H 6.9466670409 12.0508514594 5.8043221284 
H 5.8344357854 12.0535300508 6.9311701429 
O 4.8325367410 11.0599068407 7.9116538696 
H 10.4850241053 8.5072982213 5.3902344238 
H 8.4936441238 10.4945993100 5.3755842740 
O 9.4884208284 9.5089590806 6.3576192764 
H 10.0443512293 10.0676597333 6.9538371918 
H 8.9277165596 8.9452062648 6.9464012339 
O 11.0470507969 11.0354625249 7.9592721326 
H 11.6029098487 11.6309545197 7.3992797917 
O 3.2832608014 3.2306702073 12.6191006892 
H 2.7180010840 3.8264816820 12.0687009436 
H 3.8225004294 0.7054396885 10.0579631950 
H 2.7046104654 0.7116373572 8.9364937796 
H 0.7181116304 2.7035003246 8.9449343415 
H 4.2685915266 2.2588502989 11.6242829044 
H 1.1536892392 4.2658752676 10.5105367502 
H 5.3937611208 4.2654737745 8.5131899461 
O 4.8185128794 1.6891542341 11.0314110374 
H 5.3835404292 1.1353472313 11.6244330711 
O 6.3873939579 3.2785204389 9.5054329454 
H 5.8263826646 2.6862727303 10.0646266561 
H 6.9481024146 2.6842682141 8.9479667227 
H 7.3732568016 4.2551347819 10.5006213641 
O 9.4773587543 3.3028459843 12.6183613767 
O 12.5950559133 3.2596629620 9.5418676191 
H 10.0418425700 2.7041194905 12.0694214704 
H 12.0363886233 3.8210680977 8.9508665474 
H 10.0532357795 0.7161132899 10.0796091833 
H 8.9413641025 0.7152063886 8.9503181450 
O 11.0194076675 1.7020207829 11.0870869138 
H 11.6112165836 2.2592912864 10.5233291210 
H 11.6125089216 1.1369419484 11.6407419781 
H 8.4902678890 4.2632477654 11.6215653380 
H 4.2786117205 5.3894671475 8.5172826918 
O 1.7465457252 4.8255567352 11.0704349200 
H 1.1532701163 5.3892015507 11.6255804617 
O 3.3106504166 6.3829026237 9.5131741179 
H 2.7207770472 5.8242185006 10.0766423065 
H 2.7140879090 6.9395547369 8.9524936586 
H 4.2839457103 7.3904225340 10.5007222675 
O 6.3813595693 6.4066083426 12.6088833335 
H 6.9426050958 5.8139145760 12.0482763594 
O 7.9316679011 4.8534895457 11.0562275772 
O 4.8481203410 7.9794747802 11.0603861802 
H 5.4046987832 7.3785686706 11.6163269975 
O 12.5904958777 6.3913451600 12.5965789861 
H 10.4811371613 5.3963191072 8.4922801954 
O 9.4818350541 6.3917373944 9.4672821393 
H 8.9233332258 5.8273887857 10.0567625518 
H 10.0410052542 6.9479055137 10.0645984732 
H 8.4908309792 7.3830333738 8.5012320761 
O 11.0304703787 7.9327674685 11.0379681345 
H 11.5918905055 7.3758767930 11.6333402168 
H 4.2690602892 11.6187885200 8.5015123828 
H 0.7336101600 12.0441545468 12.0641540304 
H 2.7268638655 10.0641389552 12.0587757790 
H 3.8492452007 8.9501759954 12.0695248611 
O 3.2639132599 12.5901747847 9.4927215950 
O 0.1910259765 9.4774980024 9.4976770371 
H 1.1587120902 8.4838633516 8.5122117136 
O 1.7321072766 11.0387175819 11.0819104079 
H 1.1705186691 10.4775519808 10.4928454577 
H 2.2801672451 11.6070656903 10.4858021167 
H 5.3917537438 10.5012390454 8.5068865533 
H 6.9495153289 12.0600238750 12.0718497310 
O 6.3889268786 9.5385812797 9.5017349987 
H 6.9446374481 8.9472604339 8.9365980494 
H 5.8323688174 8.9407117891 10.0613617841 
O 7.9376743214 11.0651473054 11.0987469670 
H 7.3802523231 10.5074671939 10.5019377013 
H 8.9248907831 10.0704955271 12.0718631241 
O 9.4929231283 12.5975966700 9.5199671781 
H 12.0384894663 10.0473452490 8.9443543070 
H 12.0323422894 8.9242596004 10.0607769733 
H 10.4883625106 11.6266668986 8.5217287940 
H 10.4748563515 8.4958743508 11.6308243374 
H 8.4980629884 11.6291258881 10.5105779241 

