&CONTROL
   calculation      = 'vc-relax'
   tstress          = .true.
   tprnfor          = .true.
   outdir           = './'
   pseudo_dir       = '/home/ppiaggi/QuantumEspresso/pseudos'
/
&SYSTEM
   ecutwfc          = 150
   input_dft        = 'SCAN'
   ntyp             = 2
   nat              = 192
   ibrav            = 0
/
&ELECTRONS
   mixing_beta      = 0.5
   startingpot      = 'atomic'
   startingwfc      = 'atomic+random'
/
&IONS
/
&CELL
/

ATOMIC_SPECIES
O 15.999400004115753 O_ONCV_PBE_sr.upf
H 1.0079400002592869 H_ONCV_PBE_sr.upf

K_POINTS gamma

CELL_PARAMETERS angstrom
12.45911337099855 0.00000000000000 0.00000000000000
0.00000000000000 12.47345062613800 0.00000000000000
0.00000000000000 0.00000000000000 12.46654369350014

ATOMIC_POSITIONS angstrom
O 3.2687095814 3.2779978524 0.1520175232 
H 2.7078529814 2.6864237658 0.7118443388 
O 3.2759709143 0.1535393672 3.2905621091 
H 2.7040590178 0.7065689185 2.7032031728 
O 0.1558676594 3.2418587113 3.2530976448 
H 0.7129101048 3.8351741569 3.8154569938 
O 1.7278019671 1.6982970998 1.7062710051 
H 1.1343705172 1.1402831301 1.1460027939 
H 1.1360285116 2.2635641690 2.2624341257 
H 4.2643432813 4.2522517901 1.1450562016 
H 4.2698070721 1.1521401776 4.2536013890 
O 6.4184144274 3.2746403045 3.2756495531 
H 5.8249510280 2.7101750788 3.8315515741 
H 5.8237896402 3.8278239976 2.7114903735 
O 7.9590394480 1.7213326385 1.7121046166 
H 7.3659295035 1.1605139947 1.1538773783 
H 7.3672077492 2.2792400697 2.2762118851 
H 7.3927822072 4.2686768364 4.2741136242 
H 12.0500752015 3.8329856710 2.6983308337 
O 9.4956418807 3.2942533439 0.1511107826 
H 8.9338830308 2.7063162924 0.7143007852 
O 9.5049269096 0.1596151303 3.2894830420 
H 8.9379472071 0.7214142099 2.7060856167 
H 10.4829701600 4.2750592089 1.1416140688 
H 11.6156309577 2.2608837322 4.2597885177 
H 10.4966510292 1.1427083378 4.2508778213 
O 0.1942859574 6.3858089528 0.1667715022 
O 3.2698812762 6.4079029494 3.2642888676 
H 3.8261668243 5.8144173725 2.7017941437 
H 2.7073020339 5.8144267797 3.8214120442 
O 1.7275332737 7.9808027238 1.7121548127 
H 2.2846813711 7.3856848742 2.2729907551 
H 1.1656070336 7.3859385428 1.1557545288 
H 4.2623825632 7.3772880589 4.2624445069 
O 4.8242682899 4.8185840146 1.7316903108 
H 5.3787026083 5.3770311049 1.1328691570 
H 6.9383888704 6.9474945131 0.6975436159 
O 7.9374019396 7.9416872364 1.6645596854 
O 11.0745145503 4.8395587481 1.6984187151 
H 10.4817629125 5.3978664507 2.2591855924 
H 12.0560121557 5.8247913762 0.7214794816 
O 9.4853944538 6.3983813148 3.2323792158 
H 10.0520275401 6.9568379090 3.8201640067 
H 8.9351791420 5.8350773930 3.8316253285 
H 8.4974082193 7.3832375015 2.2594897240 
H 3.8279304237 12.0649676314 2.6928728810 
O 3.2718527524 9.5356386175 0.1581340433 
H 2.7159391753 8.9379129735 0.7187030156 
H 0.7183092513 10.0710470263 3.8330949910 
H 0.7241774626 8.9562675098 2.7107978517 
H 4.2673095945 10.4973384107 1.1423004251 
H 2.2781190249 11.6248181604 4.2806650906 
H 5.8176002223 12.0612083220 0.7081265842 
O 4.8299623919 11.0931887011 1.6980136042 
H 5.3896526707 10.5017412554 2.2572090624 
O 6.3961548293 9.4923794334 3.2370982578 
H 5.8316609872 8.9343285610 3.8267573867 
H 6.9527178872 10.0511701441 3.8339174884 
H 7.3819642226 8.5035431951 2.2600032017 
H 12.0331585883 12.0547112435 0.6975383209 
H 10.0537491561 12.0715620874 2.6878778148 
O 12.5869956929 9.5141066233 3.2684428295 
H 8.9378737233 8.9245379949 0.7042352888 
O 11.0407541978 11.0917172807 1.6941943457 
H 10.4864575103 10.4918072850 1.1353318082 
H 11.6057953199 10.5056067245 2.2544955945 
H 11.6264591773 8.5121927323 4.2582212254 
H 8.5046008238 11.6228899292 4.2700383205 
H 2.2722507840 4.2563538826 5.3800196116 
H 0.7046740271 0.7060168599 6.9432085255 
O 3.2641743481 3.2550013807 6.3530777861 
H 3.8226327784 3.8148008649 6.9463977444 
H 2.7000650633 2.6985015444 6.9460736137 
O 1.7012038147 1.7038500737 7.9076521267 
H 4.2657602116 2.2649635039 5.3796039617 
O 4.8607106774 1.7095824818 4.8181495394 
H 6.9371430459 0.6950094690 6.9394107450 
H 5.8249015792 0.7021223672 5.8134628570 
O 7.9266694986 1.6850230459 7.9128155294 
O 11.0578900348 1.6971975870 4.8493258327 
H 12.0486473634 0.6986765258 5.8194084387 
O 9.4970144317 3.2821649527 6.3870345348 
H 10.0536511788 2.6880807738 5.8257408964 
H 8.9330781341 2.6897761153 6.9421409384 
H 10.4950365180 4.2670520691 7.3873686480 
H 8.5115261033 4.2634746959 5.3931685804 
O 1.7133241703 4.8166658034 4.7873002851 
H 1.1583093871 5.3795927818 5.3834623143 
O 0.1678806374 6.3719184134 6.3444935063 
H 0.7235619640 6.9341309854 6.9396127864 
O 1.7033619623 7.9027867136 7.9475228443 
O 7.9556885019 4.8592257258 4.8327978384 
O 4.8500646451 7.9408534366 4.8236597138 
O 4.8377600744 4.7894992876 7.9430607919 
H 5.3911652371 5.3874986080 7.3840973834 
O 6.3957504736 6.4007406423 6.4162347844 
H 5.8335415198 6.9552313644 5.8205909697 
H 6.9575854931 5.8412083878 5.8252628002 
O 7.9371036519 7.9504772925 7.9865505778 
H 7.3788342427 7.3908632657 7.3913128783 
O 11.0339820275 7.9451401383 4.8116358394 
H 11.6259732394 7.3832423511 5.3685484828 
O 11.0861465182 4.8333581404 7.9406284124 
H 12.0631325335 5.8172596981 6.9384119552 
H 2.2603164221 8.5022648846 7.3898357747 
O 1.7176003462 11.0349749397 4.8414645112 
H 1.1548097803 11.6310277321 5.3968003858 
O 3.2504682463 9.4574207752 6.3975877686 
H 2.6954410144 10.0558155631 5.8381715981 
H 3.8118034992 10.0490892459 6.9565735694 
H 4.2538476725 8.4934777005 5.3858195545 
O 7.9464811075 11.0305263729 4.8299267572 
H 7.3802580447 11.6237298002 5.3846266429 
O 6.3834882270 12.5783265636 6.3697604517 
O 4.7871429418 11.0546843860 7.9485966520 
H 5.3765734628 11.6127632611 7.3845152375 
O 12.6093192554 12.5825461837 6.3820072303 
O 9.4905067653 9.4866622564 6.4133618156 
H 10.0501837416 8.9314745210 5.8163041561 
H 8.9325483813 10.0513079757 5.8223658290 
H 8.5002621261 8.5053406380 7.3916738856 
O 11.0506272999 11.0388187381 7.9664855424 
H 11.6088524461 11.6019851568 7.3756924726 
H 10.4893071308 10.4813361319 7.3729108418 
H 1.1523041172 2.2769283037 8.4984758656 
H 2.2617420153 1.1467690494 8.5023516155 
H 3.8271249483 2.6862174223 12.0569137273 
H 3.8222741694 0.7015787150 10.0569295959 
O 0.1712191395 3.2556548489 9.4937813676 
H 0.7294106318 3.8435840901 10.0595498137 
H 2.2800667985 4.2633333686 11.6346925617 
O 6.3760405021 0.1820716820 12.6141522919 
H 7.3699626711 2.2524519576 8.5022985230 
O 4.7919240269 1.6970266465 11.0466122505 
H 5.3859980676 1.1379405568 11.6073842087 
H 5.3854299874 2.2540736724 10.4845249474 
O 6.3827271072 3.2272813592 9.4882663457 
H 5.8256269285 3.8267974596 8.9316318377 
H 6.9418901094 3.8141170526 10.0542370962 
O 12.5942383808 0.1745891126 12.6055253663 
H 8.4886552225 1.1308687564 8.5077139594 
H 10.0526833479 2.6997457082 12.0581843004 
H 12.0678010848 3.8516999443 8.9401517228 
H 10.0650475187 0.7011676783 10.0562411269 
O 11.0260147430 1.7092172191 11.0438934496 
H 11.6163423491 1.1454330895 11.6037189791 
H 11.6220845000 2.2677285152 10.4880733250 
H 8.4968033706 4.2588814580 11.6261744867 
H 4.2697417684 5.3793089831 8.4990281897 
O 1.7287022154 4.8329663115 11.0434860488 
H 1.1649463588 5.3876239480 11.6376067833 
O 3.3019258475 6.3726119927 9.4899510249 
H 2.7055163359 6.9332370151 8.9345317228 
H 2.7119248189 5.8200356998 10.0601822652 
H 4.2660120969 7.3878294071 10.4861963533 
O 6.3758340132 6.3532989410 12.6082266027 
H 5.8198042095 6.9461133825 12.0451490288 
O 7.9363822810 4.8146572772 11.0300409059 
H 7.3735104275 5.3763207770 11.6181584001 
O 4.8230009989 7.9496816241 11.0787210034 
H 12.0629527891 6.9397320390 12.0649968345 
H 10.4917173471 5.3895945212 8.5026649752 
O 9.5217900110 6.3770903381 9.5013827912 
H 8.9290415680 5.8155456275 10.0596074161 
H 8.9279487383 6.9423538751 8.9472215804 
O 11.0679542267 7.9269552960 11.0915868649 
H 10.4992508319 7.3719001321 10.5037506274 
O 3.2256069069 12.6157184593 9.4995876996 
H 1.1414227584 8.4907858044 8.5099202732 
H 0.7001061650 12.0552054604 12.0505143951 
H 3.8289993487 8.9457257161 12.0593355093 
H 3.8195059233 12.0535764341 8.9425290582 
H 0.7086946411 10.0635845222 10.0564093193 
O 1.6754072581 11.0639010708 11.0576806856 
H 2.2670486307 10.5057816732 11.6193042201 
H 2.2691357059 11.6214997894 10.4954377580 
H 6.9410838355 12.0639615392 12.0585239433 
H 5.3849570085 10.5059848292 8.5155173132 
H 5.3805545042 8.5147986763 10.4883539898 
O 6.3485314847 9.5178471069 9.5082498535 
H 6.9421962391 8.9568061031 8.9498769399 
H 6.9428798277 10.0777271020 10.0677818835 
O 7.9100094701 11.0659621932 11.0630333862 
O 9.5002335280 9.5193854056 12.6136460108 
O 9.4685754731 12.6072435654 9.5071712527 
O 12.6044662254 9.4650735296 9.5061686458 
H 8.4988036889 10.4978685886 11.6179373109 
H 8.5081611820 11.6192268398 10.5008566356 
H 10.0634097248 8.9273295914 12.0562705411 
H 10.0586856238 12.0455607125 8.9469781678 
H 12.0489003008 10.0528185361 8.9360239168 
H 11.6167898714 8.4944781565 10.4955011732 

