&CONTROL
   calculation      = 'vc-relax'
   tstress          = .true.
   tprnfor          = .true.
   outdir           = './'
   pseudo_dir       = '/home/ppiaggi/QuantumEspresso/pseudos'
/
&SYSTEM
   ecutwfc          = 150
   input_dft        = 'SCAN'
   ntyp             = 2
   nat              = 192
   ibrav            = 0
/
&ELECTRONS
   mixing_beta      = 0.5
   startingpot      = 'atomic'
   startingwfc      = 'atomic+random'
/
&IONS
/
&CELL
/

ATOMIC_SPECIES
O 15.999400004115753 O_ONCV_PBE_sr.upf
H 1.0079400002592869 H_ONCV_PBE_sr.upf

K_POINTS gamma

CELL_PARAMETERS angstrom
12.47036150120134 0.00000000000000 0.00000000000000
0.00000000000000 12.45987625210204 0.00000000000000
0.00000000000000 0.00000000000000 12.47024250545972

ATOMIC_POSITIONS angstrom
O 3.2574772655 3.2589630277 0.1508879750 
H 3.8232022929 3.8492741978 0.7058921863 
O 3.2960719356 0.1556898074 3.2676693110 
H 2.7001181795 0.7132012897 2.7092695385 
H 0.7065460246 2.6959134635 2.6953432397 
O 1.7087493093 1.7036673861 1.7310762366 
H 2.2609561945 2.2719253549 1.1399848705 
H 1.1478877217 1.1468496183 1.1369049551 
H 4.2790370139 1.1461626235 4.2640518470 
H 1.1445726710 4.2465636305 4.2606250623 
H 5.3893428955 4.2795468220 2.2798962535 
O 6.3876792637 3.3024727429 3.2794846866 
H 6.9506498359 2.7150354201 2.7182938791 
H 5.8321061384 2.7023564386 3.8373868373 
O 7.9516405385 1.7126180969 1.7387578577 
H 7.3872428447 1.1610900134 1.1432029459 
H 7.3718926275 4.2704977742 4.2662582964 
O 12.6157748079 3.2530859156 3.2893805765 
H 12.0597306982 3.8192226276 2.6986300225 
H 10.0759716801 3.8319279950 0.7082849075 
H 10.0620429824 0.7077609354 3.8434416461 
H 8.9453649326 0.7096204996 2.7231624995 
H 8.5170906694 2.2691160864 1.1491084706 
H 11.6177794978 2.2705607550 4.2663230202 
O 9.5242866413 3.2327537652 0.1468459549 
H 4.2698400449 5.3974820103 2.2786511862 
O 3.2830072116 6.3795746271 3.2822748549 
H 2.6858620926 6.9341280704 2.7219892773 
H 2.6946457184 5.8091524188 3.8364360256 
O 1.7018416799 7.9381041084 1.7374283908 
H 1.1371976350 7.3812540294 1.1453387670 
H 4.2524212143 7.3756409568 4.2806020607 
O 4.8335004440 4.8418943812 1.6863837386 
H 5.8294494762 5.8167941024 0.7061663752 
H 6.9452633766 6.9381639686 0.6935308002 
O 7.9271050820 7.9213331184 1.6835827951 
O 12.6072960009 6.3980912348 0.1839163981 
O 11.0647861223 4.7972259349 1.7100372120 
H 10.4975782618 5.3881974072 2.2639328487 
H 11.6202397453 5.3935761080 1.1488716869 
O 9.5191817888 6.3880413904 3.2530138899 
H 8.9206723268 5.8336950986 3.8129343701 
H 8.9311633792 6.9472477066 2.6890849968 
H 10.4959125849 7.3818438289 4.2468018237 
H 2.7071272891 12.0554742881 3.8309366227 
H 3.8352511567 10.0532578250 0.7004700636 
H 0.7109073110 10.0572821530 3.8256510387 
H 0.7139229618 8.9361649755 2.7062952819 
H 2.2650255627 8.4923614179 1.1441639864 
H 4.2669195292 11.6126603692 2.2724631096 
H 7.3688167436 8.5070066477 2.2512236886 
H 5.8190346532 12.0621232985 0.7114743902 
O 4.8298637708 11.0561399846 1.6804399811 
H 5.3879364561 10.4938668177 2.2734885980 
O 6.3704402767 9.5002135849 3.2394723409 
H 5.8111075694 8.9395265630 3.8316088395 
H 6.9412083127 10.0476181031 3.8336336091 
H 8.4898805518 8.5191619357 1.1316079092 
H 8.5112379292 11.5909164106 4.2814979228 
H 12.0533056209 12.0461808785 0.6997929478 
O 9.4990812596 12.5752078984 3.2862245011 
O 12.5904632594 9.4975033655 3.2640117853 
H 10.0559282688 10.0612785042 0.7027540261 
O 11.0479556571 11.0473450352 1.6828975726 
H 11.6136473084 10.4897809637 2.2720008745 
H 10.4947799681 11.6088643101 2.2797817256 
H 11.6185077563 8.4983695743 4.2526947936 
H 0.7022547391 0.7159698764 6.9432724511 
O 3.2916021003 3.2734495626 6.4158849675 
H 3.8504065304 2.7091667781 5.8271034069 
H 2.7221482152 3.8187081444 5.8185814624 
O 1.6889986388 1.7098249644 7.9359024782 
H 2.2849427314 2.2675284498 7.3783087380 
H 4.2693014930 4.2702565060 7.3806394477 
O 4.8460428457 1.7341236952 4.8218447859 
H 5.4018836850 1.1356130970 5.3813365698 
O 6.3891528914 0.1780833343 6.3813899969 
O 7.9721576160 1.7216003931 7.9450671846 
H 7.3828504077 1.1586627111 7.3853839252 
O 11.0585505235 1.6811490740 4.8310804541 
H 10.4987002895 2.2780992272 5.3866262808 
H 12.0502377523 0.7232621857 5.8280267920 
O 9.4989089977 3.2832112911 6.3514953746 
H 8.9400399629 2.7245478998 6.9458510403 
H 10.0634246518 3.8393868339 6.9432596195 
H 8.4950206754 4.2825038331 5.3812777060 
O 1.7367032296 4.7999718074 4.8276033542 
H 1.1427174568 5.3673518952 5.3790629322 
O 0.1523674860 6.3453688057 6.3690414865 
H 0.7089725181 6.9399920846 6.9308978106 
O 1.6926035544 7.9304211329 7.9101534368 
O 7.9350263604 4.8702475045 4.8171555526 
O 4.8125039577 7.9733902109 4.8346032442 
H 5.3752398024 7.3849867758 5.3969003408 
O 4.8189506769 4.8325077237 7.9819752491 
H 5.3830750652 5.3944966625 7.3963816834 
O 6.3508205943 6.3967446077 6.3894168450 
H 6.9374453416 5.8353742570 5.8248458191 
H 6.9506591396 6.9543926641 6.9451196860 
O 7.9129525130 7.9454817955 7.9348825334 
O 11.0589872486 7.9347383185 4.8426749712 
O 11.0408207002 4.8275740613 7.9344858747 
H 11.6358878491 5.3842829739 7.3735866168 
H 12.0625384721 6.9366828419 5.8086975466 
O 1.7021390045 11.0582810116 4.7960160525 
H 2.2628144197 10.4976765888 5.3877660865 
H 1.1418627120 11.6166572203 5.3887335561 
O 3.2541289642 9.5232558924 6.3739944173 
H 2.6945585509 8.9328997703 6.9355913253 
H 3.8171965685 8.9264715438 5.8195473932 
H 4.2552915530 10.4977212443 7.3667556444 
O 7.9177909859 11.0276211973 4.8370007617 
H 5.8199860912 12.0510889037 6.9390778428 
H 6.9464847839 12.0371532519 5.8283329722 
O 4.8461665480 11.0603127070 7.9251358232 
O 12.6061741008 12.5853688698 6.3878188846 
H 8.5104932569 10.4693902715 5.3982619327 
H 8.5144768039 8.4999449059 7.3773862329 
O 9.4874791619 9.4819277021 6.3954446394 
H 10.0775527223 8.9271680977 5.8272588883 
H 10.0804409158 10.0477143544 6.9494511376 
O 11.0667195871 11.0284801836 7.9468825190 
H 11.6209453465 11.6251033881 7.3839173602 
H 2.6949957006 3.8519384122 12.0651689673 
H 3.8172043737 0.7070996439 10.0582221101 
O 0.1551765236 3.2918807308 9.4951574161 
H 0.7192315515 2.7063877989 8.9324266083 
H 2.2780491557 1.1440620425 8.4945718994 
H 4.2477846287 2.2682202928 11.6218343885 
H 1.1314619021 4.2798051637 10.4990987345 
O 6.3742738329 0.1946083822 12.6165972969 
O 4.8057247559 1.7045069431 11.0319828235 
H 5.3670326019 1.1481723104 11.6283065408 
O 6.4031350160 3.2576862458 9.5063918846 
H 5.8066146036 2.7002058361 10.0647833667 
H 5.8129253122 3.8250402083 8.9510837238 
H 7.3748168989 2.2733678632 8.5084711959 
H 7.3832429869 4.2441126198 10.4947202773 
H 12.0528561892 0.7018438561 12.0463696212 
H 8.9609763275 3.8184907736 12.0537408378 
H 12.0693182252 2.6923295989 10.0506515773 
O 9.5212641910 0.1625522899 9.5028343076 
H 8.9331125714 0.7255687830 8.9401861759 
H 11.6304423313 4.2667414372 8.4961294005 
O 11.1024544754 1.6921280867 11.0556074002 
H 10.5167565064 2.2555546735 11.6191331909 
H 10.5000778996 1.1400388560 10.4974091865 
H 2.2567000681 7.3791660018 8.5065023339 
H 0.6938745059 5.8378728998 12.0571935501 
O 1.6815580729 4.8459257517 11.0947476612 
H 2.2461245242 5.4031960803 10.5031393902 
O 3.2256366677 6.3876848731 9.5117263047 
H 3.8171068289 5.8271523256 8.9512153503 
H 3.8224362086 6.9468406682 10.0683270869 
O 6.3913797438 6.3670977288 12.5760176895 
O 7.9813055413 4.8065671910 11.0464877205 
H 7.3908173900 5.3637994612 11.6113348586 
O 4.7991419760 7.9340336727 11.0571177709 
H 5.3934955568 7.3700963986 11.6118375130 
H 8.5002133183 7.3809448899 8.4953457088 
H 12.0456870018 6.9555587840 12.0603571248 
O 9.4981315011 6.4053457222 9.4948102071 
H 8.9434852277 5.8033591394 10.0501755023 
H 10.0638986695 5.8214510849 8.9321304250 
O 11.0520232789 7.9400140905 11.0800183115 
H 10.4964671192 7.3749687583 10.4877319133 
O 0.1759550289 12.6025501558 12.6086841649 
O 3.2436869670 9.4938095532 12.6096284464 
H 1.1347530926 8.4959077011 8.5001585460 
O 3.2611983482 12.6073454390 9.4615803163 
H 3.8384282716 8.9336846187 12.0521036390 
H 2.7011527322 12.0467697213 10.0543807604 
O 0.1474205390 9.4656537344 9.4908570871 
H 0.7082274223 10.0527945453 10.0547392613 
O 1.7126899509 11.0513752369 11.0232162998 
H 2.2767207549 10.4953992497 11.6160675317 
H 1.1523829694 11.6104461585 11.6167053811 
H 4.2509255641 11.6149194369 8.4878762487 
H 6.9295956462 12.0576937555 12.0558736841 
H 5.3911809107 8.4918761802 10.4946140725 
O 6.3798156295 9.4965700428 9.5170687132 
H 5.8199489909 10.0558409183 8.9251635661 
H 6.9428154228 8.9391791560 8.9243047946 
O 7.9186050970 11.0911706999 11.0634146948 
H 7.3666153625 10.4974627647 10.4969754571 
O 9.4637097657 9.5045742492 12.6091811670 
H 10.0559188616 8.9454454188 12.0491389565 
H 8.9236417264 12.0654760739 10.0592971905 
H 12.0563019003 10.0637707014 8.9375112379 
H 10.5014083304 11.6184210277 8.5031469273 
H 11.6169100689 8.4930194596 10.4851686598 
H 8.4834462458 10.4983530151 11.6183792116 

