&CONTROL
   calculation      = 'vc-relax'
   tstress          = .true.
   tprnfor          = .true.
   outdir           = './'
   pseudo_dir       = '/home/ppiaggi/QuantumEspresso/pseudos'
/
&SYSTEM
   ecutwfc          = 150
   input_dft        = 'SCAN'
   ntyp             = 2
   nat              = 192
   ibrav            = 0
/
&ELECTRONS
   mixing_beta      = 0.5
   startingpot      = 'atomic'
   startingwfc      = 'atomic+random'
/
&IONS
/
&CELL
/

ATOMIC_SPECIES
H 1.0079400002592869 H_ONCV_PBE_sr.upf
O 15.999400004115753 O_ONCV_PBE_sr.upf

K_POINTS gamma

CELL_PARAMETERS angstrom
12.47283270082047 0.00000000000000 0.00000000000000
0.00000000000000 12.46506444932496 0.00000000000000
0.00000000000000 0.00000000000000 12.45811068962584

ATOMIC_POSITIONS angstrom
H 2.6941442115 2.7091360055 0.7180247801 
H 3.8211462529 3.8210880084 0.7193709129 
O 3.2589406900 0.1532829946 3.2857687039 
H 2.6962108393 0.7172718843 2.6998121347 
H 0.6981541686 3.8377714443 3.8472886696 
O 1.7159894520 1.7164708437 1.7153363438 
H 1.1254658627 2.2724604329 2.2800930519 
H 1.1251680278 1.1572799193 1.1529834840 
H 4.2555162080 1.1393216718 4.2598794362 
H 5.3901822275 4.2499814591 2.2705279057 
O 6.3446293619 0.1630886955 0.1542638179 
H 6.9349381915 0.7211494326 0.7188811555 
O 6.3522538550 3.2556666518 3.2685429438 
H 6.9474778640 2.6984067683 2.7084219441 
H 6.9445840405 3.8194630808 3.8247109655 
O 7.9156807217 1.7043856302 1.7151858010 
H 5.3798739958 2.2545269304 4.2608174079 
O 12.6069704237 3.2434233395 3.2942262124 
H 8.5077736083 1.1371804559 2.2687098400 
H 8.5112202383 2.2639377924 1.1574143620 
H 12.0506885500 3.8360668926 2.7294610079 
O 9.5108846742 3.2656376147 0.1952109907 
H 10.0689828615 0.7024584751 3.8229389665 
H 10.5049859494 4.2608786609 1.1547477863 
H 11.6191471140 2.2782163793 4.2761319800 
H 2.2777278890 5.3884545472 4.2729317228 
H 0.7051332045 6.9454761454 0.7181927441 
O 3.2648556161 6.3729443442 3.2973624386 
H 2.7061343398 6.9319675862 2.7030410495 
H 3.8268117096 5.8133714033 2.7070751129 
O 1.7019321839 7.9020562180 1.7080185223 
H 4.2652486807 7.3858605393 4.2757654920 
O 4.7966682244 4.8091770853 1.7102696007 
H 5.3879432534 5.3709653080 1.1516021562 
H 6.9361410365 6.9459769427 0.7137032928 
O 7.9264380115 7.9448737702 1.6836521095 
O 12.6162484607 6.3502057425 0.1616017286 
O 11.0608967268 4.8205908850 1.7519003547 
H 11.6226517991 5.3825493609 1.1625712813 
H 8.5027675331 5.3886271125 4.2639394472 
O 9.4692531844 6.3874912690 3.2714927859 
H 10.0634073076 5.8270607868 2.7140224695 
H 10.0619862010 6.9515536491 3.8275193561 
H 8.4901010358 7.3864630797 2.2733666059 
H 2.2649540066 8.4914005794 1.1482383116 
H 1.1506739988 8.5012933403 2.2701026657 
H 3.8157384138 12.0619611841 2.6871444232 
H 3.8312206413 10.0606279325 0.7055652593 
O 0.1674783974 9.4721208735 3.2665933745 
H 0.7233300488 10.0674544227 3.8284192434 
H 2.2656841611 11.6272479556 4.2637189762 
O 4.7920410049 11.0606444924 1.6921683603 
H 5.3827556566 11.6264582683 1.1344765004 
H 5.3879342015 10.5089906410 2.2550886273 
O 6.3949946956 9.5145950232 3.2421895071 
H 6.9571663381 10.0746655677 3.8327172177 
H 5.8359196747 8.9578215267 3.8373693568 
H 7.3742979488 8.5092023870 2.2802023198 
O 9.5089677847 12.6033639901 3.2347832444 
H 12.0545671801 12.0521416114 0.7071527226 
H 8.9486517456 12.0509271846 3.8347454814 
H 12.0800813458 10.0639348993 2.7068778383 
H 8.9309759331 8.9393417585 0.7120098534 
O 11.0935164339 11.0555214429 1.7007144548 
H 10.5006277891 11.6093826128 2.2668833976 
H 10.4999637346 10.4919398554 1.1457795771 
H 11.6300276182 8.5000449400 4.2649214448 
O 9.4947922206 9.5280865236 0.1529287797 
H 2.2762627462 4.2731433392 5.3979213042 
O 3.2748781198 3.2893933065 6.3909481996 
H 2.7097441464 2.6953796434 6.9447404154 
H 3.8301252910 2.6970343978 5.8258766296 
O 1.7315396514 1.7019520312 7.9284030927 
H 1.1333190366 1.1423101035 7.3733146903 
H 4.2615995751 4.2548213750 7.3726809720 
O 4.8161974283 1.6980035541 4.8528092113 
H 5.8096524571 0.6989728060 5.8316483023 
O 7.9637592186 1.7090799811 7.9308522931 
H 7.3682763099 1.1452537964 7.3769059790 
O 11.0628422856 1.6729667187 4.8273990350 
H 10.4929776215 2.2552544732 5.3884832487 
H 12.0513728696 0.7107215667 5.8222642591 
O 9.5215802658 3.2499583922 6.3815826876 
H 8.9235094185 2.6938379863 6.9412866940 
H 8.9346337757 3.8147088158 5.8215040339 
H 10.5096147553 4.2457356682 7.3692109966 
O 1.6850467477 4.8365944193 4.8412869625 
H 0.7114226858 5.8316637756 5.8291107739 
O 1.6904915806 7.9767629466 7.9346756201 
H 1.1280366291 7.3839518343 7.3764619422 
O 7.9405300404 4.7975616760 4.8232007848 
H 7.3832100982 5.3921788775 5.3826334058 
O 4.8543543487 7.9487839712 4.8346454022 
O 4.8212406295 4.8536412969 7.9286771520 
O 6.4133130268 6.3938282541 6.3842379249 
H 5.8208570045 6.9571024227 5.8266469714 
H 5.8190729575 5.8298187420 6.9384378778 
O 7.9726804238 7.9249178610 7.9442441230 
H 7.3755725332 7.3707686233 7.3812960467 
O 12.6110186601 6.4177681345 6.3830428612 
O 11.0326103450 7.9438262963 4.8219381858 
H 11.6209141345 7.3798410338 5.3832608486 
O 11.0741039503 4.8414043410 7.9208870344 
H 12.0575462785 5.8143223802 6.9398367975 
O 0.1687164285 12.6132018822 6.3837010398 
O 1.7127534246 11.0338628598 4.8295389498 
H 1.1444973373 11.6240139015 5.3838217994 
O 3.2927554515 9.4970798399 6.3846800567 
H 2.7035970526 10.0619426215 5.8256320502 
H 2.6944108071 8.9394859831 6.9417396029 
H 4.2573332084 8.5071483172 5.3927944048 
H 4.2605093321 10.4846426219 7.3766819893 
O 6.4052960025 12.6083165008 6.3925709739 
O 7.9554581827 11.0676025873 4.8038293983 
H 7.3891522375 11.6195670814 5.3979651951 
H 5.8142252145 12.0418156253 6.9491406896 
O 4.8575096124 11.0417113255 7.9361289769 
H 8.5080768428 10.4990875710 5.3952199602 
H 12.0442702135 12.0557373523 6.9408649864 
O 9.4981974350 9.5172826754 6.3882164643 
H 8.9404679318 8.9218247753 6.9476209503 
H 10.0613864658 8.9283111270 5.8275844727 
O 11.0431523885 11.0861813589 7.9397087383 
H 10.4851485837 10.4895703677 7.3816451071 
O 3.2580199736 3.2647709855 12.5833868889 
H 2.7053900638 0.7040949921 8.9204135756 
H 3.8212291105 0.7133411660 10.0442930037 
O 0.1543372262 3.2696209121 9.4649191202 
H 0.7147223883 3.8261442590 10.0614570035 
H 1.1439578810 2.2640850229 8.4909662219 
H 4.2491079101 2.2729438553 11.6108029917 
H 2.2674882174 4.2587814923 11.6139613889 
O 4.8077203217 1.7123173028 11.0173236134 
H 5.3725544852 1.1590409206 11.6115056025 
O 6.3769683757 3.2652733966 9.4715683257 
H 6.9356975831 3.8200438890 10.0689690933 
H 5.8086853593 2.7067676856 10.0582283578 
H 7.3719892975 2.2682357147 8.4920031487 
H 5.3773608720 4.2652741720 8.4960604081 
O 12.6173986497 0.1791722804 12.6067634980 
H 10.0694030219 2.7054183460 12.0590201526 
H 8.9498465556 3.8237881799 12.0601969300 
H 12.0663550064 2.7083906961 10.0548841789 
O 9.5074643662 0.1662809839 9.5226015031 
H 8.9434669073 0.7182890223 8.9271464529 
O 11.0641545285 1.7409674204 11.0583787089 
H 11.6256430893 1.1444927755 11.6131993337 
H 10.5036666986 1.1518325054 10.4947696212 
H 11.6343085997 4.2522094737 8.4847381273 
O 1.7064356477 4.8166067478 11.0198342934 
H 1.1468830320 5.3743570104 11.6139754630 
O 3.2592568038 6.4161582847 9.4707211970 
H 3.8189407758 5.8236666714 8.9094027659 
H 2.7044954255 5.8211717019 10.0316949130 
H 2.2535681677 7.3818323954 8.4897973319 
H 4.2674267221 7.3872166788 10.4693224065 
O 6.3826080423 6.3496952915 12.6088959838 
H 5.8236457451 6.9400377395 12.0462898154 
O 7.9478491848 4.7917645089 11.0646375583 
H 7.3857811409 5.3877656025 11.6193142788 
O 4.8253956107 7.9378677193 11.0712748845 
H 12.0524854732 6.9398224308 12.0615192176 
H 8.5079354342 5.3810918310 10.5033249116 
O 9.5198923291 6.3794828445 9.5204255189 
H 8.9510298230 6.9345555839 8.9312143135 
H 10.0760894064 5.8206658565 8.9245774756 
O 11.0499792609 7.9393021175 11.0872978438 
H 10.4998558585 7.3761841543 10.4874401836 
O 3.2374869332 9.4949922308 12.6091880318 
H 0.7038196759 12.0495219784 12.0497397587 
H 3.8296782103 8.9378377204 12.0466157773 
O 3.2701670622 12.5814579463 9.4801796013 
H 0.7085096581 10.0602318706 10.0588359800 
H 0.6901911314 8.9441342510 8.9379312127 
O 1.6788275576 11.0433581438 11.0489348985 
H 2.2733973937 10.4860466054 11.6104762165 
H 2.2720913881 11.6007235783 10.4882361286 
H 4.2664378647 11.6091041810 8.4910316440 
H 6.9453185160 12.0716204549 12.0562325451 
H 5.3916026240 8.5022039831 10.4891224417 
O 6.3958881901 9.4760584997 9.5009915308 
H 6.9471236091 10.0751641004 10.0604537747 
H 5.8317398967 10.0602975711 8.9362391036 
H 7.3850759589 8.4904185461 8.5029700830 
O 7.9154751140 11.0835015319 11.0691937334 
H 8.5088473554 10.5191282466 11.6241962521 
H 8.5094194549 11.6405297576 10.5080726482 
H 10.0511390150 8.9317405758 12.0509897080 
H 10.0598838530 12.0593568317 8.9339958187 
O 12.5782639440 9.5092203276 9.5005252386 
H 11.6059911302 10.4964285504 8.5001505688 
H 11.6112163412 8.5030258621 10.5001002604 

