&CONTROL
   calculation      = 'vc-relax'
   tstress          = .true.
   tprnfor          = .true.
   outdir           = './'
   pseudo_dir       = '/home/ppiaggi/QuantumEspresso/pseudos'
/
&SYSTEM
   ecutwfc          = 150
   input_dft        = 'SCAN'
   ntyp             = 2
   nat              = 192
   ibrav            = 0
/
&ELECTRONS
   mixing_beta      = 0.5
   startingpot      = 'atomic'
   startingwfc      = 'atomic+random'
/
&IONS
/
&CELL
/

ATOMIC_SPECIES
O 15.999400004115753 O_ONCV_PBE_sr.upf
H 1.0079400002592869 H_ONCV_PBE_sr.upf

K_POINTS gamma

CELL_PARAMETERS angstrom
12.47386603435876 0.00000000000000 0.00000000000000
0.00000000000000 12.46911250266308 0.00000000000000
0.00000000000000 0.00000000000000 12.46384229120429

ATOMIC_POSITIONS angstrom
O 3.2680319240 3.3026891587 0.1547562963 
H 2.7056697567 2.7098943420 0.7129357936 
O 3.2529376139 0.1723166841 3.2466680803 
O 0.1616397641 3.2835429249 3.2640715108 
H 0.7227331111 2.6928953352 2.7026496236 
O 1.7129432948 1.7396525938 1.6972998554 
H 1.1510633267 1.1494620849 1.1367418973 
H 2.2694885664 1.1392051732 2.2544217032 
H 4.2390175282 1.1486058231 4.2503541042 
H 4.2605212127 4.2675158199 1.1523922988 
H 1.1421899519 4.2659159218 4.2574661278 
H 6.9512964288 0.6937118749 0.7183994966 
O 6.4026639743 3.2748790138 3.2716697794 
H 5.8040431660 2.7160200238 3.8253279100 
H 5.8135260284 3.8364129459 2.7086011866 
O 7.9475860456 1.6818184381 1.7138168663 
H 7.3853280585 2.2728166422 2.2717284688 
H 7.3707917687 4.2662150828 4.2551101645 
H 12.0768574847 2.6890412572 3.8225040921 
O 9.4969382579 3.2432401449 0.1563190945 
H 10.0622405505 3.8359389030 0.7102223467 
O 9.5273810817 0.1507480050 3.2745621645 
H 8.9367416414 0.7128775350 2.7142189703 
H 8.5042416952 2.2771688371 1.1537788520 
H 11.6347651609 4.2590238014 2.2711612986 
H 10.5019092449 1.1373270580 4.2642197445 
O 3.2560593992 6.3590159307 3.2625436266 
H 3.8149814991 6.9539392891 3.8207380611 
H 2.6951751701 6.9474056515 2.6994227741 
O 1.6975814774 7.9388085968 1.7250680375 
H 1.1408685356 7.3808569419 1.1285677584 
H 4.2568858552 5.3873664452 2.2707075167 
H 2.2553562061 5.3917532801 4.2579901966 
O 4.8524765707 4.8278332889 1.7136924766 
O 6.3945174349 6.4103760001 0.1618447930 
H 5.8310215901 5.8183340989 0.7184149141 
O 7.9540500278 7.9424565617 1.7363959264 
H 7.3908616511 7.3810076229 1.1480124625 
O 11.0784058718 4.8241711996 1.6809677681 
H 10.5145147675 5.3777700106 2.2757782457 
H 12.0608878699 5.8145638023 0.6990591619 
O 9.5377891684 6.3748147051 3.2668481855 
H 8.9509388909 6.9377595553 2.7045013338 
H 8.9375667030 5.8147718261 3.8197211038 
H 10.5018023117 7.3633840009 4.2631876007 
H 2.7000222206 12.0450497065 3.8097393540 
H 3.8234292152 12.0500610309 2.6948034552 
O 3.2586369696 9.4719180168 0.1573091840 
H 3.8203234101 10.0600185354 0.7193558373 
H 0.7128811582 10.0410097682 3.8299100375 
H 0.7019566831 8.9278931356 2.7062553754 
H 2.2604296949 8.5015654792 1.1370620925 
O 6.3572383823 12.5994015162 0.1648701995 
O 4.7994723857 11.0548896373 1.7185861310 
H 5.3911192710 10.4949079155 2.2788091323 
H 5.3947019489 11.6095414080 1.1549552365 
O 6.3912798406 9.5226919745 3.2743896689 
H 5.8315217095 8.9251596511 3.8298251374 
H 6.9548970620 8.9356226579 2.7125266596 
H 7.3793477510 10.4870569578 4.2678523146 
H 12.0621586410 12.0568172780 0.7133315359 
H 8.9326001226 12.0597068520 3.8312415220 
O 12.5876563536 9.4868637079 3.2711410980 
H 10.0658339230 10.0730586139 0.7111369101 
H 8.5079369696 8.5048515768 1.1412975977 
O 11.0656030335 11.0614134250 1.6906202670 
H 10.5048299420 11.6230437162 2.2799236858 
H 11.6207208320 10.4987710131 2.2847633245 
H 11.6181753699 8.4858114903 4.2701629245 
H 0.7155330055 0.7012712804 6.9438996202 
O 3.2473669410 3.2811961474 6.4123187913 
H 3.7978649614 2.7152361804 5.8173218954 
H 2.6872055545 3.8421984931 5.8204901750 
O 1.6923170441 1.6864563189 7.9413059173 
H 2.2482477541 2.2825533347 7.3810569125 
H 4.2552524490 4.2599498598 7.3861994080 
O 4.7942499191 1.7380908989 4.8178237101 
H 5.3562323396 1.1432972215 5.3718732126 
O 6.3450442655 0.1532756734 6.3758764912 
H 6.9435798974 0.7104311525 6.9308898448 
O 7.9558680155 1.6816748060 7.9293640217 
O 11.0993625701 1.6910274127 4.8255261907 
H 10.5099274902 2.2588932603 5.3792991888 
H 12.0744950395 0.6975630298 5.8221495434 
O 9.5059397867 3.2431129886 6.3741083797 
H 8.9444200998 3.8309797058 5.8112212164 
H 10.0592405989 3.8396407886 6.9360337639 
H 8.5143338812 2.2764658085 7.3697662155 
O 1.6955490534 4.8320741055 4.8513190516 
O 0.1495503917 6.3850985269 6.4207254283 
H 0.7040293908 5.8248845861 5.8230905537 
O 1.7433364136 7.9473828238 7.9393313784 
H 1.1493591103 7.3890746354 7.3794612510 
O 7.9687278711 4.8275312210 4.8095318076 
H 7.3791006991 5.3851355559 5.3736736368 
O 4.8230407488 7.9390592344 4.7889370201 
H 5.3800974715 7.3775493084 5.3831329619 
O 4.8544412787 4.8087108555 7.9502085664 
O 6.3754690231 6.3820705119 6.3537360049 
H 5.8188241488 5.8191223650 6.9458830340 
H 6.9293524680 6.9470224110 6.9483951410 
O 7.8956080243 7.9436743891 7.9400529038 
O 11.0561729097 7.9252992799 4.8599707930 
O 11.0269051995 4.8347527198 7.9415269212 
H 11.6250368254 5.3944565376 7.3864702747 
H 12.0583528800 6.9411150701 5.8285062533 
H 4.2703414203 8.5025301536 5.3851417188 
O 1.7182886047 11.0393876337 4.7884709499 
H 1.1625998921 11.6015335173 5.3827145697 
H 2.2852851819 10.4869513121 5.3815345485 
O 0.1639997147 12.5746856177 6.3789244268 
O 3.2814260447 9.5033082820 6.3540510284 
H 2.7202645780 8.9447259873 6.9472741487 
H 3.8348874220 10.0691414225 6.9478937551 
O 7.9334652008 11.0830884340 4.8310127165 
H 6.9343336002 12.0549169329 5.8196409980 
O 4.7901169577 11.0780968801 7.9437208863 
H 5.3849206152 11.6331047525 7.3805998936 
H 8.4919978424 8.5031241987 7.3824612221 
H 8.4928213699 10.4917949886 5.3921721434 
O 9.4637730594 9.4890147769 6.3949993717 
H 10.0665124067 10.0457383796 6.9485442336 
H 10.0498503715 8.9255572309 5.8327678326 
O 11.0407853819 11.0358685213 7.9272795830 
H 11.6371811996 11.5963546599 7.3721723170 
H 3.8279365444 2.7058994523 12.0627139628 
O 3.2502444134 0.1499974823 9.5295314598 
H 2.6947862488 0.7158246773 8.9393048601 
H 0.7008758611 3.8293237024 10.0664556907 
H 1.1284957095 2.2761872111 8.4995785101 
H 4.2515198837 1.1410408092 10.5138857417 
H 2.2786347114 4.2669915956 11.6152892413 
O 4.8151632964 1.7267763780 11.0769319876 
H 5.3712545006 1.1273974483 11.6322731772 
O 6.4136157589 3.2598416799 9.5019000585 
H 5.8219156271 2.7013416680 10.0613979875 
H 5.8188182225 3.8164308152 8.9394536523 
H 7.3958480689 2.2715681476 8.4908768410 
H 7.3827928043 4.2605100127 10.4912263564 
O 12.6081229238 3.2709378847 9.4791289394 
H 12.0465573620 0.7025235044 12.0525527297 
H 8.9381246424 3.8364330977 12.0591417510 
H 12.0546756609 2.7098877759 10.0748691621 
H 8.9429399840 0.7012427552 8.9179698917 
H 11.6143841403 4.2760219164 8.5071585449 
O 11.0797507627 1.6932259389 11.0699073714 
H 10.4866065088 2.2568044210 11.6248574878 
H 10.4891332656 1.1390786535 10.5039910435 
H 0.7040761739 5.8189160184 12.0404322843 
O 1.6868189413 4.8237987800 11.0508138898 
H 2.2805594290 5.3813762835 10.4907759697 
O 3.2765234310 6.3573504916 9.4893479737 
H 2.7154313757 6.9508431868 8.9317043175 
H 3.8306743835 6.9488321408 10.0555182696 
H 4.2666578248 5.3781734846 8.5061747814 
H 6.9479933451 5.8183825287 12.0594393832 
O 7.9413052662 4.8242801833 11.0815228351 
O 4.8215962719 7.9419061263 11.0385787859 
H 5.3826732086 7.3845110428 11.6312572032 
O 12.6112438874 6.4089657023 12.5954618268 
H 8.4879268278 7.3832859011 8.5001735039 
H 8.4995682319 5.3834956802 10.4874796171 
O 9.4620864908 6.3912159068 9.4861317278 
H 10.0567315940 5.8315375071 8.9269126732 
H 10.0561808243 6.9504977465 10.0448698704 
O 11.0575858779 7.9464064364 11.0209170602 
H 11.6169757307 7.3805592134 11.6091445246 
O 0.1731669172 12.6154662811 12.6085948845 
H 2.7028034710 10.0690653110 12.0603091371 
H 3.8183026360 12.0688898376 8.9354559060 
O 0.1520047625 9.4898437653 9.4755140998 
H 0.7091736417 10.0502731096 10.0691096142 
H 1.1508960460 8.5047461424 8.5020213969 
H 4.2579385343 8.4979147879 11.6312593894 
O 1.7158277488 11.0252964078 11.0678390891 
H 1.1477463767 11.6158634444 11.6221185420 
H 2.2665952652 11.6224299433 10.5031304214 
H 6.9482309505 12.0464094796 12.0597029858 
H 5.3811337055 10.5116312243 8.4994287237 
O 6.3650271022 9.5312162036 9.4920252964 
H 6.9279465634 8.9413492386 8.9315044003 
H 5.8121129569 8.9357842404 10.0547069017 
O 7.9396888352 11.0658656307 11.0758028444 
H 7.3767573008 10.5051135789 10.4882149931 
O 9.5067876600 9.4819201833 12.6130374290 
O 9.4945112499 12.6036265902 9.5125403385 
H 8.9474071650 10.0753869488 12.0544717007 
H 10.0559127734 12.0437843525 8.9228989305 
H 12.0599472236 8.9332853828 10.0666812410 
H 11.6316667232 10.4806481128 8.4935136961 
H 10.5034461400 8.5074478774 11.6173037089 
H 8.4985155925 11.6217905241 10.4772991188 

