&CONTROL
   calculation      = 'vc-relax'
   tstress          = .true.
   tprnfor          = .true.
   outdir           = './'
   pseudo_dir       = '/home/ppiaggi/QuantumEspresso/pseudos'
/
&SYSTEM
   ecutwfc          = 150
   input_dft        = 'SCAN'
   ntyp             = 2
   nat              = 192
   ibrav            = 0
/
&ELECTRONS
   mixing_beta      = 0.5
   startingpot      = 'atomic'
   startingwfc      = 'atomic+random'
/
&IONS
/
&CELL
/

ATOMIC_SPECIES
O 15.999400004115753 O_ONCV_PBE_sr.upf
H 1.0079400002592869 H_ONCV_PBE_sr.upf

K_POINTS gamma

CELL_PARAMETERS angstrom
12.46704682643059 0.00000000000000 0.00000000000000
0.00000000000000 12.46765845852564 0.00000000000000
0.00000000000000 0.00000000000000 12.44582956813007

ATOMIC_POSITIONS angstrom
O 3.2825173956 3.2864523030 0.1637147107 
H 2.6919362077 2.7235489419 0.7232982566 
O 3.2250093477 0.1526148417 3.2697118463 
H 3.8314503461 0.7039232306 3.8254599523 
H 0.7070422196 2.7141296339 2.7206822124 
O 1.7041550529 1.7462557136 1.7241627522 
H 1.1431410514 1.1567755423 1.1622080797 
H 2.2634175550 1.1491447802 2.2809402699 
H 1.1451699063 4.2732622426 4.2761484629 
H 4.2525232075 4.2681108431 1.1464543747 
H 5.3971030905 2.2554397005 4.2444029952 
O 6.3939759371 3.2319218991 3.2507926748 
H 5.8300768648 3.8215629925 2.6914870379 
H 6.9433514972 3.8281176566 3.8190783308 
O 7.9808385287 1.6959691990 1.7023957244 
H 7.3906946202 2.2633031862 2.2585704078 
H 7.3812563177 1.1374166299 1.1475558042 
O 12.6147409297 3.2806193767 3.3077306764 
H 12.0523858688 3.8325875341 2.7083593692 
H 8.9401285114 2.6935483528 0.7034937411 
H 10.0573104331 0.7177098992 3.8363517845 
H 8.9449541595 0.7097272014 2.7084633569 
H 10.5005886503 4.2498478126 1.1451168568 
H 11.6121190787 2.2829812551 4.2772295289 
H 0.7016468186 6.9496706477 0.7156177298 
O 3.2761365605 6.3789639526 3.2427375246 
H 3.8278515957 6.9499737061 3.8337140973 
H 2.7138537617 5.8233485729 3.8369869311 
O 1.7103906211 7.9239172359 1.6835621861 
H 2.2773104588 7.3673480954 2.2734356989 
H 4.2706006816 5.3832937211 2.2716651888 
O 4.8544731546 4.8228464768 1.7031992415 
H 6.9467603338 6.9361405236 0.7370181094 
H 5.8238474397 5.8177518137 0.7204682434 
O 7.9208153587 7.9364806107 1.7364561258 
H 8.5129411606 7.3746581986 2.2951263205 
O 11.0593496668 4.8080875901 1.7410127906 
H 11.6123921782 5.3773396153 1.1513614053 
H 8.4884292841 5.3784429811 4.2729719804 
O 9.4786550776 6.3668825509 3.2859901815 
H 10.0684262334 5.8093082692 2.7212419999 
H 10.0739604444 6.9305204569 3.8407408344 
O 0.1840295718 12.6151539087 0.1667194666 
H 3.8064828716 12.0486102424 2.7100733622 
H 2.7094748334 8.9225869454 0.7051305866 
O 0.1577439061 9.4581998814 3.2802875508 
H 0.7128892794 10.0549949787 3.8408131342 
H 1.1579677565 8.4867333042 2.2803692960 
H 4.2486641284 10.4796002894 1.1443965975 
H 2.2582911814 11.6366652838 4.2686944970 
O 6.4016057498 12.6140161079 0.1638794721 
H 5.3822989009 8.5145097914 4.2613820383 
H 5.8044072056 12.0552048071 0.7198862919 
O 4.8013035569 11.0743953033 1.7101572866 
H 5.3646446987 10.4841434354 2.2689286378 
O 6.3504439347 9.4963375800 3.2679043257 
H 6.9410246871 10.0621661331 3.8239371576 
H 6.9464578985 8.9346396098 2.7128280716 
H 11.6276242337 8.4938164349 4.2703510701 
H 8.5149374066 8.4961783258 1.1782626211 
H 12.0633398590 12.0515781132 0.7282191129 
O 9.5042100766 12.5887779025 3.2739624345 
H 12.0608772652 10.0494116266 2.7223621183 
O 9.5033457542 9.5075484302 0.1965323557 
O 11.0976705706 11.0475377830 1.7263350889 
H 10.5062652898 11.6146132568 2.2802003264 
H 10.5016292444 10.4967972839 1.1596995647 
H 8.5069858740 11.6248028733 4.2628507085 
H 0.7005007497 0.7043568435 6.9446892418 
O 3.2664208699 3.2483687651 6.4023256024 
H 3.8270767523 2.6942745289 5.8058874906 
H 2.7092747018 3.8166958464 5.8139122724 
O 1.6815650755 1.6877095695 7.9375092647 
H 2.2741421766 2.2437192124 7.3737812851 
H 4.2558585439 4.2438791991 7.3722440833 
O 4.8039823301 1.6926083917 4.8010562400 
H 5.3970814927 1.1396221855 5.3682900130 
O 6.3841786650 0.1557229436 6.3511512789 
H 6.9437445090 0.7180152801 6.9410260618 
O 7.9102224712 1.7181214133 7.9565342230 
H 8.5011269753 2.2744722663 7.3901383636 
O 11.0213653892 1.7206510325 4.8367684337 
H 11.6173121427 1.1586924912 5.3925522562 
O 12.5679336019 0.1554209178 6.3800200954 
O 9.4798594363 3.2642781051 6.4158938479 
H 8.9199498123 3.8222066507 5.8216319351 
H 10.0492541925 2.7093812410 5.8266864848 
H 10.4884160174 4.2603116475 7.3874031303 
O 1.7427740182 4.8265384916 4.8381126624 
H 1.1534507379 5.3888652087 5.3998221630 
O 0.1913388955 6.3829144055 6.3975868967 
O 1.7402001713 7.9745393926 7.9467477790 
H 1.1767649091 7.3783688384 7.3949996289 
O 7.9183927808 4.7865898815 4.8235507245 
H 7.3546854203 5.3812141226 5.3780873431 
O 4.8144816094 7.9248164617 4.8182332522 
O 4.8146406275 4.8071797998 7.9636291139 
H 5.3692621104 5.3699063689 7.3685527801 
O 6.3599416960 6.3508795904 6.3719671624 
H 5.8021432088 6.9455727611 5.8115759457 
H 6.9250816785 6.9432262836 6.9272696365 
O 7.9070496699 7.9341535427 7.9231591638 
O 11.0668559474 7.9006733566 4.8303078846 
O 11.0555600472 4.8459429406 7.9472231987 
H 12.0658730053 5.8193453335 6.9530689854 
H 12.0632648987 6.9366796022 5.8338459608 
H 4.2619680016 8.5219547231 5.3806038883 
O 1.6685747370 11.0724176627 4.8290024347 
H 2.2674686259 10.5219478567 5.3925995421 
H 0.6941063078 12.0630603227 5.8191766598 
O 3.2723757583 9.5289730302 6.3529861339 
H 3.8395579286 10.0893477471 6.9392759652 
H 2.7257012831 8.9631424537 6.9518156863 
O 7.9413841983 11.0319676544 4.8182641914 
H 7.3858544729 11.6263656727 5.3807995926 
H 5.8275475247 12.0638867131 6.9492706293 
O 4.8395478846 11.0755724960 7.9037443337 
H 10.4982126392 8.4950774806 5.3801614034 
H 8.4968638810 8.4944706868 7.3604644734 
O 9.4920628256 9.4619231194 6.3639242832 
H 10.0533546262 10.0536859392 6.9243380745 
H 8.9371004171 10.0589711312 5.8027480443 
O 11.0169345618 11.0531423524 7.9260781792 
H 11.6020987776 11.6205128315 7.3651536093 
H 2.6861250125 3.8401452698 12.0467403546 
H 3.8348785711 0.7086439409 10.0585916510 
H 0.7060680861 2.6898712335 8.9308264519 
H 2.2753394280 1.1258375070 8.4946425827 
H 4.2575604381 2.2825314874 11.6187238744 
H 1.1283325161 4.2630144337 10.4886555678 
H 5.8109363860 0.7152071385 12.0552545778 
O 4.8250615164 1.6912321487 11.0656547577 
H 5.3816636123 2.2844322084 10.5016727462 
O 6.3709915160 3.2687889676 9.5331808056 
H 6.9364076641 2.7104374808 8.9435413963 
H 5.8127123741 3.8267003222 8.9365275245 
H 7.3758106846 4.2634937877 10.4969850694 
O 9.5344349747 3.2565178122 12.5930507644 
O 12.6116324882 3.2833140182 9.4877615166 
H 8.5032983238 1.1493965814 8.5065695934 
H 12.0518772567 0.7056436883 12.0564999546 
H 8.9404371959 3.8187493517 12.0354798882 
H 12.0554798726 2.6910764517 10.0525833320 
O 9.4976728124 0.1689657107 9.4989773446 
O 11.0938974872 1.6981512840 11.0567255901 
H 10.5015835422 1.1349675022 10.4996626555 
H 10.4973328846 2.2594244512 11.6130714982 
H 11.6138041724 4.2450012993 8.5014052479 
O 1.7176791843 4.8261986779 11.0491613472 
H 1.1232105509 5.3869957814 11.6066042758 
O 3.2777703807 6.4000967151 9.5099130844 
H 3.8261832205 5.8033968895 8.9425236845 
H 2.7045051601 5.8125877135 10.0621766240 
H 2.2955323774 7.3847463655 8.5142115001 
H 4.2699612090 7.3648556059 10.4900939108 
O 6.3905317442 6.3818962451 12.5826508755 
O 7.9730772265 4.8232237521 11.0528928800 
H 7.3824543785 5.3805543984 11.6181129738 
O 4.8290130015 7.9672383957 11.0426250222 
H 5.3924414113 7.3815133462 11.6062562252 
O 12.6015611681 6.3635706873 12.6012258877 
H 8.5024469730 7.3787675750 8.4837998125 
H 12.0445690371 6.9608491651 12.0449524956 
O 9.5089303251 6.4159502599 9.4908789202 
H 8.9482993601 5.8249030802 10.0506187464 
H 10.0688767578 5.8198085241 8.9336535292 
O 11.0477925823 7.9702651121 11.0667288565 
H 10.4948442614 7.4023377568 10.4739690944 
O 3.2654358382 9.5170793863 12.5893901040 
H 4.2764325153 11.6280795579 8.5021102878 
O 3.2810075239 12.6091331349 9.4678674613 
H 3.8309929264 8.9253736990 12.0326708714 
H 2.7185427952 12.0531218203 10.0648868199 
H 0.7243680705 10.0830120334 10.0346684747 
H 0.7332689271 8.9548950991 8.9257070039 
O 1.7233291991 11.0764355165 11.0172528612 
H 1.1609282235 11.6299688957 11.6137230428 
H 2.2769401318 10.5049023003 11.6048277556 
H 5.3918913297 10.5046796348 8.4940298521 
O 6.3760511226 9.5220954787 9.4886751978 
H 6.9362083672 8.9293060613 8.9297421974 
H 5.8150550006 8.9301338471 10.0496122105 
O 7.9577248969 11.0644477804 11.0583888249 
H 7.3721009122 10.4987918276 10.4979709238 
H 7.3592685745 11.6228731097 11.6144462632 
H 10.0580187085 8.9524471834 12.0392423578 
H 8.9365481119 10.0687652786 12.0581136605 
H 10.0511489140 12.0414819292 8.9350603614 
H 8.9343912907 12.0477887944 10.0598333278 
O 12.6022556862 9.5214575848 9.4731682597 
H 11.6202091326 10.4989959720 8.4808412793 
H 11.6131148813 8.5241122308 10.4751157736 

