&CONTROL
   calculation      = 'vc-relax'
   tstress          = .true.
   tprnfor          = .true.
   outdir           = './'
   pseudo_dir       = '/home/ppiaggi/QuantumEspresso/pseudos'
/
&SYSTEM
   ecutwfc          = 150
   input_dft        = 'SCAN'
   ntyp             = 2
   nat              = 192
   ibrav            = 0
/
&ELECTRONS
   mixing_beta      = 0.5
   startingpot      = 'atomic'
   startingwfc      = 'atomic+random'
/
&IONS
/
&CELL
/

ATOMIC_SPECIES
H 1.0079400002592869 H_ONCV_PBE_sr.upf
O 15.999400004115753 O_ONCV_PBE_sr.upf

K_POINTS gamma

CELL_PARAMETERS angstrom
12.46707583754710 0.00000000000000 0.00000000000000
0.00000000000000 12.47757944251957 0.00000000000000
0.00000000000000 0.00000000000000 12.45807594693370

ATOMIC_POSITIONS angstrom
H 0.7130799942 0.7071330308 0.7244846440 
H 3.8436362616 3.8163335611 0.7095270385 
H 2.7051218684 0.6981303356 2.7042116746 
O 0.1798686878 3.2672240908 3.2724442191 
O 1.7103349313 1.6785068932 1.7111617869 
H 1.1501009810 2.2728721318 2.2688457219 
H 2.2682437600 2.2694077289 1.1475345877 
H 4.2642728885 1.1296116018 4.2646941939 
H 1.1458836162 4.2559382007 4.2669154960 
H 5.3971392923 4.2580321270 2.2787743640 
H 6.9389330200 0.7185548985 0.7175073910 
O 6.3845608275 3.2634622749 3.2443995200 
H 6.9373525617 3.8241314402 3.8438713510 
H 5.8231140181 2.6986937414 3.8311067491 
O 7.9433963747 1.7185490175 1.6811128510 
H 7.3834341246 2.2724983487 2.2797440363 
H 12.0597267941 3.8342360449 2.7146271498 
H 12.0470537163 2.7070021289 3.8257294223 
O 9.5043083655 3.3104478387 0.1599780318 
H 8.9440717206 2.7164473697 0.7177517054 
O 9.4997965763 0.1668958947 3.2600988388 
H 8.4999762327 1.1508137055 2.2688272113 
H 10.5041648988 4.2844839802 1.1592975384 
H 10.4971339253 1.1448428683 4.2533836237 
H 4.2801110144 5.3790693654 2.2751800232 
O 3.2956722177 6.3875727793 3.2744765395 
H 2.7029656163 6.9451558156 2.7134018379 
H 2.7034754596 5.8231894636 3.8304409306 
O 1.7034672230 7.9472357788 1.7396037224 
H 1.1440453406 7.3897445617 1.1435714367 
H 4.2606346485 7.3720154078 4.2675646932 
O 4.8392696052 4.8187605481 1.6835945509 
H 6.9433446754 6.9335496022 0.7131664892 
H 5.8234799490 5.8147271294 0.7140120125 
O 7.9174461537 7.9214459717 1.7098891024 
O 12.6132852074 6.3933113592 0.1853749079 
H 8.5036549229 7.3651998374 2.2809761317 
O 11.0609493370 4.8482266749 1.7510238931 
H 11.6198918316 5.4065922506 1.1553787738 
H 8.4889147408 5.3873846708 4.2889226375 
O 9.4638488307 6.3845239870 3.2913215926 
H 10.0539304651 6.9554402196 3.8435644450 
H 10.0616545651 5.8328095121 2.7284069447 
O 3.2581003850 12.6096783035 3.2967637122 
H 3.8219354081 12.0526888228 2.7056981544 
O 3.2388652385 9.5124345158 0.1545753379 
H 3.8341466681 10.0684138957 0.7162683163 
H 0.7181498655 10.0572953175 3.8374704551 
H 0.7201745660 8.9390754940 2.7146337605 
H 2.2631861847 8.5098057291 1.1495561551 
H 2.2695307452 11.6261985155 4.2734242822 
O 6.3812504695 12.5988173288 0.1606860914 
O 4.7983207455 11.0559462734 1.7103983974 
H 5.3895216987 11.6203563164 1.1531592429 
H 5.3937662144 10.4938535392 2.2653804495 
O 6.3837200396 9.5153717275 3.2604066745 
H 6.9448264338 8.9221128787 2.7026157383 
H 5.8260437875 8.9226341195 3.8222725434 
H 7.3760542555 10.5035493748 4.2540723092 
O 12.6144411561 12.5948996486 0.1672562453 
H 8.5148558224 8.4794205331 1.1539404033 
H 8.9340016728 12.0596302039 3.8232403871 
H 10.0574349651 12.0444915208 2.7066703712 
O 12.5938652606 9.4947141328 3.2793860172 
H 10.0706142651 10.0482085877 0.7109798714 
O 11.0324223473 11.0438657455 1.7138229212 
H 11.6250775756 11.6097680654 1.1598710468 
H 11.6260876085 10.4884590203 2.2766965190 
H 11.6256881702 8.5106456069 4.2613905280 
O 0.1674649673 0.1621921100 6.3776601178 
O 3.2429504390 3.2617720080 6.3808026833 
H 3.8383746367 3.8194189037 6.9389053939 
H 3.8308653339 2.6986229009 5.8199239704 
O 1.7044425006 1.7057240130 7.9647549027 
H 2.2657751012 2.2667199851 7.3746253280 
H 1.1393689851 1.1530191644 7.3695466775 
H 2.2678027434 4.2581747428 5.3852095733 
O 4.8243619422 1.7231994431 4.8226791383 
H 5.3872024642 1.1304722874 5.3808020025 
H 6.9391903768 0.6991499132 6.9397687416 
O 7.9336875779 1.6915040023 7.9086732187 
O 11.0854487811 1.7108188769 4.8121270952 
H 10.4848808273 2.2629013683 5.3734782718 
H 12.0438582579 0.7191450735 5.8117817154 
O 9.5201603335 3.2391928466 6.3699527531 
H 8.9241680626 3.8105342680 5.8250612347 
H 8.9300387490 2.6829549961 6.9364917162 
H 10.5014386419 4.2383493005 7.3602555889 
O 1.7090505130 4.8497182673 4.8234260548 
O 0.1535652195 6.4110153953 6.3740653132 
H 0.7142648007 5.8222633254 5.8101611855 
O 1.7093989134 7.9363946548 7.9623237552 
H 1.1515677629 7.3760984734 7.3676800298 
O 7.9244461769 4.7931897984 4.8424013834 
H 7.3676970094 5.3859955726 5.4061722365 
O 4.8565084909 7.9310725510 4.8262058971 
O 4.8335163945 4.7933197947 7.9450048173 
H 5.3903981995 5.3923213398 7.3874640625 
O 6.3783149239 6.3571048734 6.3947375613 
H 5.8197441285 6.9470708191 5.8289211674 
H 6.9405840392 6.9540322076 6.9484809247 
O 7.9153865776 7.9492146567 7.9373655095 
O 11.0285609867 7.9561212964 4.8237257793 
H 11.6191863077 7.3909692245 5.3799009336 
O 11.0889137503 4.8064320375 7.9168054484 
H 12.0600587523 5.8111196549 6.9250819399 
O 1.7128438307 11.0366556994 4.8406866286 
H 1.1487992287 11.6324444877 5.3923141660 
O 3.2724715974 9.4737541717 6.3772241008 
H 2.7065559198 10.0684143521 5.8244746777 
H 3.8304461008 10.0656766522 6.9381159434 
H 2.2704518075 8.4963342035 7.3713266425 
H 4.2662595805 8.4965376710 5.3827592991 
O 6.3815958430 12.6170848381 6.3444975275 
O 7.9638349553 11.0702942669 4.8111134861 
H 7.3677414309 11.6265056390 5.3717872847 
H 5.8216930566 12.0570292733 6.9384735813 
O 4.8368284913 11.0695132310 7.9102338641 
H 8.5094940387 8.5063676993 7.3768171672 
H 12.0411964477 12.0819197867 6.9371792728 
O 9.4990891948 9.5123234258 6.4051577450 
H 8.9406443659 10.0705045413 5.8106749275 
H 10.0628059899 8.9536400939 5.8142463258 
O 11.0443377701 11.1013057188 7.9499678121 
H 10.4876200928 10.5114239272 7.3839930646 
O 3.2473045991 3.2603600930 12.6085154595 
H 3.8349922285 2.6958225938 12.0493422599 
H 2.6921547021 0.6982265540 8.9332670309 
O 0.1562255584 3.2590679076 9.5226874023 
H 0.7159004652 2.6956240587 8.9318846044 
H 4.2663497291 1.1344532324 10.4801561677 
H 1.1415109827 4.2558163421 10.4984387312 
H 2.2614489451 4.2573809401 11.6177093951 
H 7.3753501467 2.2551678425 8.5002177401 
H 5.8211838140 0.7081757153 12.0528170694 
O 4.8300143489 1.6897602135 11.0731171725 
H 5.3868888248 2.2540390396 10.4820268357 
O 6.3847876816 3.2338375095 9.4893058857 
H 6.9427002685 3.8255768513 10.0513534657 
H 5.8239474784 3.8287336439 8.9316903247 
H 8.4947399065 1.1367530320 8.5053957421 
H 12.0579493253 0.7149332383 12.0677887354 
H 10.0673919211 2.7192158938 12.0599235845 
H 12.0619125658 3.8117087732 8.9250864180 
O 9.5036344351 0.1813135754 9.5080903248 
O 11.0627299166 1.7176928010 11.0930795399 
H 11.6264391264 2.2719707925 10.4987738717 
H 10.5030587662 1.1573441113 10.5008863181 
H 8.5007335827 4.2808026392 11.6174978667 
H 0.7025652166 5.8268898532 12.0527354770 
H 4.2717827005 5.3828688570 8.5049268591 
O 1.6945473283 4.8488813444 11.0650087473 
O 3.2878348501 6.3874452253 9.5081405233 
H 2.6977879840 6.9413203438 8.9395345700 
H 2.6936346852 5.8259452105 10.0635592637 
H 4.2642068950 7.3838560329 10.4934267000 
O 6.3774407559 6.3798190541 12.5778906145 
O 7.9383718834 4.8345039404 11.0216407165 
H 7.3747958773 5.3939518654 11.6124575167 
O 4.8304531806 7.9771061541 11.0464297637 
H 5.3857345430 7.3834509847 11.6101797656 
H 8.5052391074 7.3785317349 8.4895693768 
H 12.0505432936 6.9455419608 12.0461739078 
H 10.4891865180 5.3600021100 8.4756475219 
O 9.4962895303 6.3622035035 9.4458322620 
H 10.0516359323 6.9265387070 10.0379692439 
H 8.9305099876 5.8115588812 10.0426854072 
O 11.0451267662 7.9025700186 11.0379213827 
H 4.2712194540 11.6275471542 8.4987694938 
O 3.2832469730 12.6158588935 9.4944486272 
H 3.8290952296 8.9498725394 12.0540465300 
H 2.6903005021 12.0530953616 10.0496535718 
H 0.7094104399 8.9351774886 8.9299768241 
H 0.7022777438 10.0509929679 10.0539847694 
O 1.6901258791 11.0502798999 11.0272192667 
H 1.1357456921 11.6132519495 11.6213003513 
H 2.2570423069 10.4967565593 11.6192641467 
H 5.3942166429 10.5108660721 8.5075444149 
O 6.3801800047 9.5387620182 9.4993525678 
H 5.8221678124 8.9426593050 10.0587549901 
H 6.9438244532 8.9487872524 8.9416816993 
O 7.9697190597 11.0660205749 11.0674250392 
H 7.3768149516 11.6266781251 11.6261161806 
H 7.3770011334 10.5110192578 10.5031808885 
O 9.5060159993 9.4597001289 12.6092434393 
H 11.6074814640 8.4967319052 10.4820311282 
H 10.4895768218 8.4959594173 11.6022420559 
H 8.9466797075 10.0578617764 12.0554548164 
H 8.9411806960 12.0685873250 10.0671213427 
H 10.0587964658 12.0622886265 8.9465888697 
O 12.5806092343 9.4936028903 9.4873385699 
H 11.6073435226 10.5026814785 8.5000956900 

