&CONTROL
   calculation      = 'vc-relax'
   tstress          = .true.
   tprnfor          = .true.
   outdir           = './'
   pseudo_dir       = '/home/ppiaggi/QuantumEspresso/pseudos'
/
&SYSTEM
   ecutwfc          = 150
   input_dft        = 'SCAN'
   ntyp             = 2
   nat              = 192
   ibrav            = 0
/
&ELECTRONS
   mixing_beta      = 0.5
   startingpot      = 'atomic'
   startingwfc      = 'atomic+random'
/
&IONS
/
&CELL
/

ATOMIC_SPECIES
O 15.999400004115753 O_ONCV_PBE_sr.upf
H 1.0079400002592869 H_ONCV_PBE_sr.upf

K_POINTS gamma

CELL_PARAMETERS angstrom
12.48143960826667 0.00000000000000 0.00000000000000
0.00000000000000 12.46873493331482 0.00000000000000
0.00000000000000 0.00000000000000 12.45132315408553

ATOMIC_POSITIONS angstrom
O 0.1640523285 0.1530309356 0.1611797753 
H 2.6883176515 2.7035290220 0.7220529664 
H 3.8097665827 3.8213354506 0.7266887700 
O 3.2798536677 0.1591873068 3.2876475410 
H 2.7131736193 0.7145297041 2.6981020007 
H 0.6824128681 3.8100673145 3.8483850025 
O 1.7211512733 1.7069651304 1.7109192557 
H 1.1267235260 2.2628328404 2.2723017107 
H 1.1281401177 1.1450301932 1.1524909184 
H 4.2846406349 1.1457982407 4.2537085204 
H 5.3861598983 4.2679954709 2.2815872125 
O 6.3928577413 3.3112422148 3.2743709877 
H 6.9490996434 2.7215625047 2.7071468849 
H 5.8368185374 2.7110647838 3.8304269258 
O 7.9317647637 1.7458434044 1.7076329749 
H 7.3653496813 1.1572198550 1.1493211786 
H 7.3940770005 4.2881769951 4.2581313523 
O 12.6051300276 3.2553148285 3.2510303508 
H 12.0445415998 2.6899359594 3.8376695382 
O 9.5208695267 3.2787514484 0.1573354709 
H 8.9273267180 2.7145655840 0.7116834902 
O 9.4685282421 0.1495095833 3.2518702166 
H 10.0612014580 0.6989517576 3.8217450380 
H 8.4904117045 1.1487743544 2.2638738633 
H 11.6209708812 4.2490385346 2.2695962500 
H 10.5022383616 4.2592425126 1.1471214478 
H 2.2545855170 5.3752787001 4.2836244771 
O 0.1761151011 6.3842094294 0.1591572293 
O 3.2523587561 6.3729144477 3.3035321957 
H 3.8178556502 5.8139865037 2.7146409525 
H 2.6977749863 6.9338097119 2.7078870691 
O 1.7311643912 7.9413959866 1.7093424614 
H 1.1371246357 7.3803108408 1.1508086629 
H 4.2519057414 7.3676753634 4.2705073786 
O 4.7894791090 4.8252725944 1.7228572703 
H 5.3804716759 5.3832054507 1.1592930270 
O 6.3768338999 6.3777784214 0.1876200059 
O 7.9714961800 7.9368677318 1.7028511610 
H 7.3752491193 7.3748652815 1.1476011312 
O 11.0714536653 4.8463541955 1.7042054562 
H 12.0663557875 5.8203275159 0.7171825179 
O 9.5193109628 6.3916177230 3.2867256554 
H 10.0736068964 5.8228550779 2.6975267755 
H 8.9513320503 6.9413094456 2.6923021073 
H 10.5048067960 7.3792111797 4.2678399298 
H 8.5175801559 5.4029530054 4.2641205286 
H 3.8326952282 12.0643479539 2.6919035945 
O 3.2679590308 9.5241705879 0.1577163315 
H 2.7033019570 8.9337440058 0.7157917961 
O 0.1437921006 9.5011124538 3.2512987958 
H 0.7007612600 10.0626531916 3.8442665440 
H 1.1384869005 8.5000268159 2.2692796100 
H 4.2603897874 10.4925401646 1.1361417286 
H 2.2696897223 11.6314031183 4.2720634504 
H 5.8110067505 12.0687434285 0.7000606306 
O 4.8233103888 11.0874002681 1.6919672781 
H 5.3810332358 10.4960552593 2.2542780311 
O 6.3749415003 9.4956754180 3.2340466009 
H 5.8112589138 8.9366219508 3.8223822980 
H 6.9315009084 10.0546047644 3.8306339461 
H 7.3785054245 8.4964606810 2.2621679035 
H 12.0553306162 12.0555231573 0.7181742528 
H 10.0609373784 12.0535029971 2.6983954301 
H 12.0633137791 8.9421824893 3.8420625567 
H 8.9389333604 8.9254450934 0.7052473996 
O 11.0675982866 11.0713697691 1.7022621556 
H 10.5092936430 10.4749537279 1.1448487883 
H 11.6264765450 10.4837804826 2.2679744935 
H 8.4897725191 11.6219835237 4.2569884473 
H 2.2641334616 4.2539418493 5.3989565277 
O 0.1444842474 0.1639734401 6.3640370247 
H 0.6996293736 0.7319914769 6.9539098756 
O 3.2446885511 3.2603249649 6.3769296456 
H 3.8394051569 3.8208539328 6.9351655245 
H 3.8377935167 2.7023091672 5.8159039824 
O 1.6714874966 1.7337597424 7.9415869554 
H 2.2704443443 2.2840116589 7.3777870944 
O 4.8424968855 1.7377701503 4.8172367262 
H 5.3964029516 1.1432686644 5.3806039757 
H 6.9471693924 0.7019959876 6.9620981879 
O 7.9516626170 1.6692383335 7.9537293226 
O 11.0507093950 1.6907272240 4.8042773233 
H 10.4918371806 2.2510242400 5.3965978329 
H 11.6195682079 1.1406102541 5.3987718085 
O 9.4870105345 3.2332788814 6.3952641434 
H 8.9370154148 3.8323232980 5.8333561717 
H 10.0555261590 3.8228689897 6.9508040585 
H 8.5062139232 2.2686190218 7.3940619589 
O 1.6651505547 4.8130576861 4.8442222062 
H 0.7026607282 6.9279021609 6.9568618556 
H 0.7057778527 5.8080630938 5.8380339296 
O 1.7002923308 7.9056039878 7.9534144404 
O 7.9529948510 4.8454855502 4.8543552312 
O 4.8067755688 7.9643756596 4.8314129904 
H 5.3752263323 7.3762447531 5.3874677982 
O 4.8343927026 4.7911389694 7.9276078068 
H 5.3936788882 5.3904484449 7.3738927681 
O 6.3571758578 6.3947294785 6.3879343468 
H 6.9519313583 5.8415281329 5.8236445098 
H 6.9502175662 6.9558126531 6.9464050226 
O 7.9174429712 7.9456571615 7.9429016747 
O 11.0566798072 7.9680360272 4.8398364514 
H 11.6184471867 7.3724123369 5.3934473101 
O 11.0250541607 4.8224987678 7.9369029448 
H 11.6195527201 5.3821995772 7.3769788792 
O 12.5917017139 6.3703621741 6.3942503252 
H 2.2596363177 8.4932800187 7.3881692294 
O 1.7053010726 11.0424048519 4.8292681005 
H 1.1490731504 11.6371434102 5.3895127524 
O 3.2583895924 9.4917992889 6.4158595333 
H 3.8152982982 8.9308045627 5.8208507270 
H 2.6998084701 10.0550049980 5.8266233084 
H 4.2535650148 10.4848551596 7.3941881785 
O 6.3847939870 12.6132150372 6.3695794215 
O 7.9282046018 11.0301887796 4.8149082349 
H 7.3782552820 11.6230459370 5.3838611648 
H 5.8204749049 12.0575538863 6.9603393121 
O 4.8110028080 11.0765134660 7.9574732419 
H 8.5101363511 8.5083474140 7.3854159900 
H 12.0709862384 12.0703948115 6.9583096839 
O 9.5035205098 9.5085248275 6.4114956607 
H 10.0604771061 8.9424123117 5.8212767911 
H 8.9400815277 10.0617541479 5.8174883446 
O 11.0987770275 11.0578060417 7.9514322203 
H 10.5053169712 10.5048079606 7.3866135442 
O 3.2504926698 3.2644586333 12.5828112127 
O 3.2555770925 0.1833022592 9.4839094985 
H 0.6983250394 3.8414890211 10.0477166879 
H 0.7060517800 2.7248969021 8.9277435419 
H 2.2617700888 1.1649275114 8.4956112433 
H 2.2594510657 4.2610319147 11.6171157241 
H 4.2462552110 2.2704331474 11.6008589485 
H 4.2519693894 1.1545741615 10.4786316996 
O 6.4051914259 0.1638498326 12.5964184108 
H 5.8133637924 0.7220238175 12.0344691457 
O 4.8426173556 1.7196821288 11.0361218937 
O 6.4115592189 3.2570254745 9.4979514710 
H 5.8076674994 2.7047308366 10.0549817912 
H 5.8289248389 3.8191759591 8.9302043088 
H 7.3887915875 2.2580749041 8.5155074304 
H 7.3762149782 4.2679493301 10.4885899653 
H 12.0510202134 0.7126889181 12.0552425442 
H 8.9303820396 3.8368220776 12.0449799637 
O 12.5889126879 3.2806177515 9.4868633925 
H 10.0646980769 0.7141002030 10.0592297203 
H 8.9443467718 0.7070079899 8.9424004499 
H 11.6206072260 4.2656241678 8.4986379296 
O 11.0595020709 1.6895412971 11.0486924299 
H 11.6146128868 2.2853179643 10.4874712337 
H 10.4964799877 2.2810818006 11.6065647640 
H 4.2686862724 5.3772302057 8.4892281912 
O 1.7084165658 4.8281621961 11.0228122798 
H 1.1471217641 5.3873768374 11.6148139582 
O 3.2968429859 6.3635632588 9.4823597801 
H 2.7040782454 5.8099013585 10.0486085366 
H 2.7029254354 6.9321970741 8.9321973184 
H 4.2673628965 7.3609676796 10.4843149062 
H 5.8147864271 6.9365098329 12.0462323756 
H 6.9394683769 5.8235177834 12.0432780453 
O 7.9371910697 4.8337324985 11.0748486321 
O 4.8213919949 7.9243077974 11.0791806417 
H 8.5125622825 7.3791733131 8.4953976537 
H 12.0643191627 6.9417576308 12.0484445098 
H 8.4942327925 5.3890543337 10.4746213737 
O 9.4735877847 6.3766490787 9.4803565531 
H 10.0707033776 6.9348757099 10.0361602129 
H 10.0639140948 5.8149648095 8.9173970076 
O 11.0770190268 7.9028506404 11.0407588603 
H 1.1440877840 8.5048552380 8.5109248092 
H 3.8226047918 8.9287692749 12.0475356109 
H 2.6979411823 12.0649697801 10.0519059254 
H 3.8165031129 12.0522040252 8.9313523154 
O 0.1575942202 9.4740013191 9.4945605442 
H 0.7120001819 10.0690052543 10.0567877561 
O 1.7081693101 11.0771920873 11.0312557398 
H 1.1423826717 11.6294890457 11.6254721055 
H 2.2653165325 10.5108652347 11.6192762514 
H 5.3724661333 10.4823240650 8.5134563041 
H 5.3868293116 8.4807036636 10.4876841125 
O 6.3559929296 9.4812973447 9.5020680517 
H 6.9503174064 8.9262459628 8.9379224679 
H 6.9497279315 10.0440528171 10.0570797557 
O 7.9516694943 11.0287216698 11.0502334724 
H 7.3897202258 11.6236224492 11.6038728473 
O 9.5356861765 9.4817114603 12.5973329474 
H 11.6372875895 8.4986577629 10.4849808204 
H 10.5129682379 8.4947349485 11.5979347695 
H 8.9465964535 10.0481397068 12.0402184018 
O 9.5072197412 12.5844248694 9.5028831849 
H 12.0721443799 10.0668181550 8.9407445069 
H 10.5049760507 11.6192213049 8.5094197879 
H 8.5128040823 11.6200610942 10.4890295583 

