&CONTROL
   calculation      = 'vc-relax'
   tstress          = .true.
   tprnfor          = .true.
   outdir           = './'
   pseudo_dir       = '/home/ppiaggi/QuantumEspresso/pseudos'
/
&SYSTEM
   ecutwfc          = 150
   input_dft        = 'SCAN'
   ntyp             = 2
   nat              = 192
   ibrav            = 0
/
&ELECTRONS
   mixing_beta      = 0.5
   startingpot      = 'atomic'
   startingwfc      = 'atomic+random'
/
&IONS
/
&CELL
/

ATOMIC_SPECIES
H 1.0079400002592869 H_ONCV_PBE_sr.upf
O 15.999400004115753 O_ONCV_PBE_sr.upf

K_POINTS gamma

CELL_PARAMETERS angstrom
12.46707568906896 0.00000000000000 0.00000000000000
0.00000000000000 12.46905919864907 0.00000000000000
0.00000000000000 0.00000000000000 12.45169356214768

ATOMIC_POSITIONS angstrom
H 3.8162891153 3.8190173120 0.7055337598 
O 3.2898787039 0.1630766482 3.3002365774 
H 2.6967285549 0.7136630727 2.7320786132 
O 0.1594549135 3.2896659787 3.2709935737 
H 0.7110699420 2.6945653823 2.7045076867 
O 1.7017863761 1.6972384682 1.7394736032 
H 2.2575647519 2.2570579302 1.1429806490 
H 1.1406369479 1.1355393440 1.1501372206 
H 1.1567003823 4.2556402557 4.2649535162 
H 4.2484794421 1.1532787168 4.2888525573 
H 5.3830596940 4.2410268488 2.2591980215 
O 6.3877873134 3.2462884634 3.2466279053 
H 5.8233289971 2.6910090812 3.8399225338 
H 6.9396146586 3.8128161960 3.8395679797 
O 7.9740365703 1.7104833966 1.7057542461 
H 7.3791636503 1.1507614836 1.1484650480 
H 7.3804180419 2.2583915801 2.2775095620 
H 12.0576944242 2.6966749209 3.8222367924 
O 9.5255630626 3.3086985831 0.1777033271 
H 8.9578013774 2.7160150398 0.7292925710 
H 8.9351906601 0.7074927499 2.7002572193 
H 10.4936472541 1.1391129661 4.2444577459 
H 11.6357861702 4.2793758687 2.2814283788 
H 10.5163562895 4.2770177725 1.1664803323 
O 3.2622491077 6.4096340042 3.2526399659 
H 3.8189651976 5.8146271790 2.6933431294 
H 2.7020665617 5.8185275836 3.8148494771 
O 1.7069041751 7.9843609009 1.7123530720 
H 2.2672841909 7.3859963490 2.2666828153 
H 1.1447223204 7.3934697717 1.1516362870 
H 4.2517596465 7.3836157082 4.2561036715 
O 4.7920706765 4.8021998484 1.7001936718 
H 5.3876717292 5.3557097879 1.1364628586 
O 6.3817602889 6.3544354353 0.1735722033 
O 7.9235064174 7.9290583358 1.7353191628 
H 7.3697441718 7.3587929385 1.1468980548 
O 12.6131841537 6.4321555027 0.1575723202 
O 11.0740857441 4.8740413682 1.7257314197 
H 8.4970244182 5.3852176090 4.2794435850 
H 12.0588105468 5.8407824722 0.7255154132 
O 9.4950544498 6.3946180391 3.3058694092 
H 10.0610149951 5.8401505977 2.7140497258 
H 8.9291721760 6.9479901198 2.7129861553 
H 10.4894701176 7.3822272321 4.2827204491 
H 2.6950705289 12.0637469156 3.8505467178 
H 3.8380473978 10.0778156305 0.7287034938 
H 2.7167082065 8.9612688824 0.7270988460 
O 0.1543735321 9.5221430953 3.2753492947 
H 0.7134168726 8.9282552775 2.7138545422 
H 4.2684973687 11.6295898544 2.3066637282 
H 1.1406345805 10.4887215991 4.2622442651 
H 5.8129177227 12.0668342747 0.7246896344 
O 4.8298315595 11.0772634023 1.7090062599 
H 5.3895999383 10.5106168543 2.2954321415 
O 6.3920261711 9.5313282308 3.2808856387 
H 5.8198022306 8.9425268794 3.8327159184 
H 6.9376913965 8.9343500117 2.7124901544 
H 7.3877841591 10.5050274492 4.2704188274 
O 9.5285843521 12.6136346565 3.2571633049 
H 12.0516531896 12.0457236040 0.7070812455 
H 8.9345015904 12.0605796819 3.8238077647 
H 12.0642052771 8.9309527637 3.8378990407 
H 10.0526617198 10.0515118118 0.7033844027 
H 8.4841944874 8.4819252456 1.1377195301 
O 11.0619461675 11.0535133636 1.6783368068 
H 10.4986897388 11.6112107468 2.2696473861 
H 11.6188364410 10.4916682963 2.2706984420 
O 0.1504446650 0.1657319587 6.4013833655 
O 3.3034119720 3.2858363228 6.3868982639 
H 2.7063739152 2.7212087044 6.9377157589 
H 2.7119068960 3.8387294964 5.8174168021 
O 1.7039703483 1.7494060904 7.9303225326 
H 1.1461779366 1.1595218501 7.3647469965 
H 4.2815040417 4.2723349325 7.3759572315 
H 4.2678635150 2.2795925447 5.4017337874 
O 4.8518664313 1.7101910668 4.8418997780 
H 6.9392163802 0.7050679298 6.9489264255 
H 5.8182993444 0.7070141486 5.8319520012 
O 7.9335933048 1.6641527060 7.9363700484 
O 11.0819956721 1.6989856248 4.8098279258 
H 10.4837173467 2.2564815967 5.3657499140 
H 12.0540971548 0.7156153661 5.8019789506 
O 9.4827488435 3.2154793261 6.3722047178 
H 8.9187013293 3.8148152705 5.8219516428 
H 10.0377214301 3.8055614929 6.9401854957 
H 8.4908670205 2.2560071988 7.3710730117 
O 1.7454070883 4.8254583301 4.8194317086 
H 1.1463107522 5.3780936439 5.3809660478 
O 0.1766922390 6.3596975043 6.3753526590 
O 1.7091278226 7.9401558977 7.9412699687 
H 1.1515269582 7.3461510438 7.3808045536 
O 7.9356131344 4.7935595594 4.8377911598 
H 7.3780736650 5.3910623186 5.3964986604 
O 4.8428614366 7.9479144727 4.8127765610 
O 4.8497691486 4.8204382662 7.9718036075 
H 5.4012625490 5.3912175066 7.3825474013 
O 6.3924178781 6.3665352504 6.3773496053 
H 5.8287680324 6.9529811124 5.8157696174 
H 6.9491065096 6.9650534792 6.9360546854 
O 7.9374189482 7.9149478027 7.9362149804 
O 11.0847140486 7.9314017125 4.8511894047 
O 11.0350751052 4.8000075545 7.9064581736 
H 12.0529093384 5.7966862840 6.9327133482 
H 12.0450014695 6.9262799250 5.8271040389 
O 1.7002173573 11.0816108287 4.8235436667 
H 2.2575520654 10.4886957082 5.3848481672 
H 0.7060364193 12.0639391253 5.8157392915 
O 3.2603169542 9.4917619757 6.3545854812 
H 2.7048311263 8.9247721295 6.9432578741 
H 3.8217444713 10.0482153360 6.9490867858 
H 4.2504227230 8.5013950066 5.3795172820 
O 7.9789095396 11.0691453449 4.8280591697 
H 7.3829193342 11.6286795483 5.3857434314 
O 6.3809319419 12.5804850894 6.3867435636 
O 4.8250555062 11.0211458942 7.9320884839 
H 5.3899046838 11.6157122973 7.3776475022 
H 8.4998932430 8.5132494693 7.3835660282 
H 10.4940723153 8.4985201165 5.4050882616 
O 9.5016846095 9.4846537669 6.4006565489 
H 8.9439890926 10.0783790031 5.8395600806 
H 10.0596758324 10.0764082084 6.9632089026 
O 11.0380130715 11.0726867448 7.9555022038 
H 11.6202357618 11.6358336872 7.3893452887 
O 3.2179406157 3.2593792451 12.6020705488 
H 3.8110233102 2.7068625843 12.0337968968 
O 3.2627349937 0.1536351004 9.4512240466 
H 3.8236151779 0.7154849674 10.0406607533 
H 0.6994975237 2.7125509190 8.9362332900 
H 0.6997163959 3.8282642320 10.0594432307 
H 2.2615428955 1.1519806010 8.4874825870 
H 2.2487801798 4.2542671381 11.6173854505 
O 6.3662712461 0.1847688999 12.6044268179 
O 4.7854574862 1.7183795665 11.0443512541 
H 5.3873385227 2.2783154894 10.4938153201 
H 5.3709432869 1.1563989949 11.6101040344 
O 6.3937467856 3.2315467045 9.5009185669 
H 6.9636783972 3.8214643013 10.0534692686 
H 5.8424442186 3.8287522150 8.9362458672 
H 7.3788563178 2.2616908776 8.4970259943 
H 11.5981107701 4.2527627936 8.5089701220 
H 8.5351426089 4.2716856188 11.6090421691 
H 12.0475603677 0.6990425092 12.0420407770 
H 10.0771117915 2.7124823849 12.0645670020 
O 12.5734775226 3.2706082994 9.4968249698 
H 8.9291080747 0.7008745188 8.9339445653 
O 11.0442151148 1.7059075331 11.0813997665 
H 10.4785274845 1.1466484811 10.4934029920 
H 11.6016716449 2.2640366660 10.4847371285 
H 0.7046787185 5.8343571724 12.0531641216 
O 1.6609604370 4.8190860907 11.0557436989 
H 2.2647486351 5.3721277366 10.4998730174 
O 3.2439764110 6.3577429661 9.5153013252 
H 3.8374586566 6.9261279631 10.0666254652 
H 3.8390039063 5.8027561584 8.9535229588 
H 2.2669935887 7.3504152246 8.5049700561 
H 6.9533520616 5.8034832671 12.0348543359 
H 5.8309518584 6.9208388076 12.0304722032 
O 7.9385275320 4.8216500523 11.0444627992 
O 4.8333272798 7.9067480026 11.0439929314 
H 10.4812097008 5.3754851408 8.4891029138 
H 8.5239238287 5.3874070999 10.4819648554 
O 9.4950106338 6.3659846037 9.4843218649 
H 10.0603840513 6.9581778940 10.0376155252 
H 8.9330651392 6.9584540062 8.9251048394 
O 11.0347249405 7.9643094618 11.0393041532 
H 11.6263089891 7.4052348550 11.6014749713 
O 0.1751709666 12.6064699291 12.5969784381 
H 4.2823583624 8.5023471325 11.6072989081 
O 3.2815625815 9.5163981127 12.5863862691 
H 2.7125345967 12.0580543564 10.0495434442 
H 0.7397181733 10.0626739891 10.0421542301 
H 0.7229524782 8.9375717595 8.9282635904 
H 4.2668457815 11.6160873246 8.4915043624 
O 1.7352387263 11.0583750741 11.0172366751 
H 2.2948335461 10.5035854985 11.6164951605 
H 1.1662199488 11.6141439452 11.6046118169 
H 5.3919332128 8.4984922165 10.4808083999 
H 7.3746752052 8.5077985619 8.4940864942 
H 6.9260954537 12.0549807894 12.0510595949 
O 6.3752810719 9.4676034022 9.4892357687 
H 6.9325827161 10.0605344762 10.0531646340 
H 5.8186746729 10.0634502152 8.9274790069 
O 7.8935716975 11.0517284082 11.0606807731 
O 9.4609308230 9.4928191086 12.5941032100 
O 9.4816197384 12.6108609077 9.5346688551 
H 8.4897108858 10.4869248115 11.6126276780 
H 8.4840165658 11.6105863157 10.4972552352 
H 10.0593672651 8.9396372108 12.0319218313 
H 10.0556351891 12.0571373930 8.9494903429 
O 12.6058167363 9.5132720323 9.4804405862 
H 11.6419719911 10.5123128629 8.5039844533 
H 11.6283724889 8.5238024937 10.4802869295 

