&CONTROL
   calculation      = 'vc-relax'
   tstress          = .true.
   tprnfor          = .true.
   outdir           = './'
   pseudo_dir       = '/home/ppiaggi/QuantumEspresso/pseudos'
/
&SYSTEM
   ecutwfc          = 150
   input_dft        = 'SCAN'
   ntyp             = 2
   nat              = 192
   ibrav            = 0
/
&ELECTRONS
   mixing_beta      = 0.5
   startingpot      = 'atomic'
   startingwfc      = 'atomic+random'
/
&IONS
/
&CELL
/

ATOMIC_SPECIES
H 1.0079400002592869 H_ONCV_PBE_sr.upf
O 15.999400004115753 O_ONCV_PBE_sr.upf

K_POINTS gamma

CELL_PARAMETERS angstrom
12.46957789736191 0.00000000000000 0.00000000000000
0.00000000000000 12.46193877917811 0.00000000000000
0.00000000000000 0.00000000000000 12.46306526626788

ATOMIC_POSITIONS angstrom
H 2.6850709978 2.7017377472 0.7077082368 
O 3.2465893892 0.1731006928 3.2425082086 
H 0.6966923312 2.7005901411 2.6934683911 
O 1.6870658553 1.7313761573 1.7048049044 
H 2.2472556365 1.1298140916 2.2558760495 
H 1.1256525163 1.1443964289 1.1410975920 
H 4.2521570252 4.2574557081 1.1491824134 
H 4.2365997064 1.1422478130 4.2457402169 
H 1.1380075738 4.2563399336 4.2578295974 
O 6.3701905703 0.1679959374 0.1529592828 
H 6.9619379840 0.7236074366 0.7171587039 
O 6.4045749790 3.2776432686 3.2904766182 
H 5.8075463677 2.7132567258 3.8405132771 
H 5.8134114435 3.8322375748 2.7243637050 
O 7.9555541878 1.7233378723 1.7001567530 
H 7.3930149518 2.2770711962 2.2943059835 
H 7.3709178746 4.2677584253 4.2846026923 
O 12.6137145336 3.2702661696 3.2844860177 
H 12.0544337521 3.8282772656 2.6899228693 
H 8.9444933877 2.7016899603 0.7161121112 
O 9.5026429186 0.1832539183 3.2758908639 
H 8.5112830381 1.1555987699 2.2904533643 
H 10.5016384060 4.2675325510 1.1279103452 
H 11.6186820900 2.2831195054 4.2638414415 
H 10.5030658993 1.1626272479 4.2693434651 
O 0.1956990784 6.3964585080 0.1658121687 
O 3.2793080104 6.3953025497 3.2856895413 
H 2.7095200261 5.8033042416 3.8364170088 
H 3.8285265508 5.8014678450 2.7157900497 
O 1.7391658261 7.9715219024 1.7232876482 
H 2.2929778654 7.3775997443 2.2874202251 
H 1.1762317847 7.3783128210 1.1667087653 
H 4.2763269978 7.3650605416 4.2733914464 
O 4.8171810215 4.8159640837 1.7375777423 
H 5.3696048200 5.3788248180 1.1403830000 
H 6.9266855100 6.9418856295 0.7061450509 
O 7.9043965073 7.9234930340 1.6974273249 
H 8.4942548226 7.3590159885 2.2554749979 
O 11.0924547849 4.8315349080 1.6855257812 
H 10.4955305695 5.3805785895 2.2523588102 
H 12.0675804100 5.8309751683 0.7155084125 
O 9.4987415569 6.3620019350 3.2286400495 
H 8.9371918009 5.8108334976 3.8278041238 
H 10.0523842777 6.9358426427 3.8134412671 
H 2.7009407345 12.0377986957 3.8111175900 
H 3.8215852430 12.0473741882 2.6921219069 
H 3.8429297358 10.0685054334 0.7118632059 
H 2.7268343227 8.9468520083 0.7276837188 
H 0.7149268063 10.0664665681 3.8265135434 
H 0.7288225144 8.9503755549 2.7062715766 
O 4.8177624987 11.0698974001 1.7083508550 
H 5.4083802409 10.5074516120 2.2675692235 
H 5.4111140706 11.6299954423 1.1496223909 
O 6.3956244394 9.5251127585 3.2693818735 
H 6.9495072833 8.9320966152 2.7044487048 
H 5.8335343197 8.9321021313 3.8271634104 
H 7.3956535870 10.4827271350 4.2616034096 
O 12.5991648333 12.6009103549 0.1680174993 
H 11.6129539263 8.5090620979 4.2470909529 
H 8.5042416038 8.4839928587 1.1438348071 
H 8.9432912914 12.0492584485 3.8335931456 
H 10.0611094105 12.0544161830 2.7126986539 
O 12.5976565292 9.5109045038 3.2561216337 
O 9.4681368109 9.4811236470 0.1650570635 
H 10.0616047656 10.0421105988 0.7242314613 
O 11.0199616026 11.0504378122 1.7088289003 
H 11.6079489438 11.6070094498 1.1403605475 
H 11.6211953476 10.4955769903 2.2655424741 
H 0.7212916071 0.7235402142 6.9636479073 
O 3.2662624892 3.2767094571 6.4140845405 
H 3.8127024689 2.7069524933 5.8187623231 
H 2.6955283935 3.8277962127 5.8227131028 
O 1.7141296360 1.6902491638 7.9628553212 
H 2.2697720613 2.2829877812 7.3987988501 
H 4.2670000657 4.2774465544 7.3698903609 
O 4.7928560713 1.7294752927 4.8144979392 
H 5.3544443267 1.1326069774 5.3671730249 
H 6.9280401797 0.7065667951 6.9303978869 
O 7.9279600456 1.6813000190 7.9340999759 
O 11.0609268891 1.7254248981 4.8610977422 
H 12.0739469721 0.7284308625 5.8430464625 
O 9.5068486668 3.2715315242 6.4217898246 
H 8.9441366949 3.8331879139 5.8330938938 
H 10.0652890314 2.7162318158 5.8224605097 
H 8.4965197929 2.2732836819 7.3828958262 
H 10.4962459658 4.2595254704 7.3742065770 
O 1.7262547808 4.8113716728 4.8273114277 
H 1.1286892959 5.3785147897 5.3746003928 
H 0.6816342800 6.9494183521 6.9211565455 
O 1.6741195230 7.9339817482 7.8990633221 
O 7.9700364420 4.8294151464 4.8368014219 
H 7.3820760644 5.3946360671 5.3962625506 
O 4.8641236569 7.9403400173 4.8229415462 
O 4.8225770420 4.8694895415 7.9348288933 
O 6.4253172797 6.4004097596 6.3883988768 
H 5.8318075556 6.9560369311 5.8233349255 
H 5.8275336722 5.8414298882 6.9447243520 
O 7.9905529739 7.9453944484 7.9439016498 
H 7.3985143352 7.3879882396 7.3807334631 
O 12.6006703098 6.3521852144 6.3564696262 
O 11.0465217820 7.9150855841 4.7978025771 
O 11.0612244830 4.8184310721 7.9652456330 
H 11.6140236537 5.3805821693 7.3682119126 
H 12.0364916056 6.9405153097 5.7965543753 
O 1.7130659360 11.0466204728 4.8058851784 
H 2.2725048775 10.4799870369 5.3935074295 
H 1.1623494591 11.6094821617 5.4026080712 
O 0.1599101517 12.5948670887 6.4026139154 
O 3.2560023933 9.4764237383 6.3533648526 
H 3.8069205543 10.0393824107 6.9524954453 
H 2.6844335739 8.9221992819 6.9410506976 
H 4.2654672536 8.4876698235 5.3885854617 
O 6.3398817095 12.6056441551 6.3701069413 
O 7.9531172106 11.0809274885 4.8191681413 
H 6.9382860843 12.0504433804 5.8131260749 
O 4.8035771845 11.0175047362 7.9361659996 
H 5.3629821035 11.6073309891 7.3744183989 
H 10.4998921779 8.5065606217 5.3728143421 
H 8.5157580209 10.4925687519 5.3796438494 
O 9.5248093716 9.4959594444 6.3577808766 
H 8.9604509637 8.9413638155 6.9517802608 
H 10.0845752910 10.0577821757 6.9483786728 
O 11.0763008199 11.0331442325 7.9443314761 
H 11.6366451845 11.6326194863 7.3909374137 
O 3.2795184996 3.2612711640 12.6128855927 
H 2.6898591128 3.8228386711 12.0524067012 
H 2.7078596797 0.7239676028 8.9442851948 
H 3.8337477114 0.7099035170 10.0557314620 
H 0.7041355448 3.8377411980 10.0589485064 
H 1.1494409788 2.2850712790 8.5177055973 
H 4.2650520259 2.2714955009 11.6168255647 
O 4.8329933140 1.7153891474 11.0288590066 
H 5.3940756470 1.1614166341 11.6257753072 
O 6.3742215239 3.2769559520 9.4674273818 
H 6.9374854398 3.8335091429 10.0583582632 
H 5.8199841405 2.7148264301 10.0639442055 
H 7.3703322631 2.2751132053 8.4942508021 
H 5.3799304428 4.2756010021 8.4951376526 
O 12.6164375238 3.2398145471 9.5016504253 
O 9.5013627075 3.2881825543 12.6096596508 
H 8.4998007426 4.2693996271 11.6223376251 
H 12.0488947149 0.6994077598 12.0281769572 
H 10.0585280770 2.6921940464 12.0521295477 
H 12.0592400986 3.8286755571 8.9342141403 
H 8.9219651880 0.7091491860 8.9318048907 
O 11.0653051626 1.6925802151 11.0786662232 
H 10.4974091398 1.1412132187 10.4862769845 
H 11.6189147459 2.2585610076 10.4855747002 
H 2.2428272448 7.3834704818 8.4928025687 
O 1.6979151505 4.8024610959 11.0530463135 
H 1.1468123185 5.3970517482 11.6205210131 
H 2.2532672521 5.3963761209 10.4906996243 
O 3.2198800613 6.3988569046 9.4821338687 
H 3.8180136970 5.8392634633 8.9283932660 
H 3.8087584663 6.9552281197 10.0497005181 
O 6.3341569292 6.3805680995 12.6100823652 
H 6.9318627196 5.8256572912 12.0504911147 
O 7.9139840385 4.8385819949 11.0650631084 
O 4.8059019293 7.9396044425 11.0260135895 
H 5.3647727995 7.3778493197 11.6187102095 
H 8.5158932020 5.3904456604 10.5074525599 
H 12.0735827226 6.9521450022 12.0636105906 
O 9.5204196224 6.3810016269 9.5317469969 
H 8.9637823076 6.9431729930 8.9382130993 
H 10.0772952082 5.8184080480 8.9383296377 
O 11.0674866237 7.9328666419 11.0925003051 
H 10.5101110736 7.3702273812 10.4989931425 
H 1.1215367069 8.5004567233 8.4929842133 
H 0.6993676853 12.0415683364 12.0485225291 
O 3.2727398119 9.5120088405 12.5896564116 
O 3.2704157358 12.5851037859 9.4940385250 
H 0.7083300386 10.0564152542 10.0573845203 
H 4.2483050655 11.6134642694 8.4982370850 
H 4.2549447867 8.5070541981 11.6198997348 
O 1.6826874252 11.0445501004 11.0489996621 
H 2.2802366741 10.4974265387 11.6162894091 
H 2.2689372853 11.6135440417 10.4923495747 
H 6.9624091598 12.0632789190 12.0628909062 
O 6.4042119317 9.4841687089 9.4893608510 
H 5.8095384815 10.0425101979 8.9306314723 
H 5.8104877850 8.9246514781 10.0481888527 
H 7.3918759038 8.5023656875 8.5005055962 
O 7.9411536638 11.0739365347 11.0625922068 
H 7.3808193052 10.4831968261 10.5031780035 
O 9.5140387238 12.6110280264 9.4919246111 
O 12.6086274206 9.4685080769 9.5017980602 
H 10.0624699924 8.9230695492 12.0681278021 
H 8.9230926190 12.0514865839 10.0530458872 
H 12.0537920654 10.0666453209 8.9413903343 
H 10.5058667953 11.6187545274 8.4997310285 
H 11.6192333725 8.4999954295 10.4986067314 
H 8.4989791186 10.4801339891 11.6226346241 

