&CONTROL
   calculation      = 'vc-relax'
   tstress          = .true.
   tprnfor          = .true.
   outdir           = './'
   pseudo_dir       = '/home/ppiaggi/QuantumEspresso/pseudos'
/
&SYSTEM
   ecutwfc          = 150
   input_dft        = 'SCAN'
   ntyp             = 2
   nat              = 192
   ibrav            = 0
/
&ELECTRONS
   mixing_beta      = 0.5
   startingpot      = 'atomic'
   startingwfc      = 'atomic+random'
/
&IONS
/
&CELL
/

ATOMIC_SPECIES
O 15.999400004115753 O_ONCV_PBE_sr.upf
H 1.0079400002592869 H_ONCV_PBE_sr.upf

K_POINTS gamma

CELL_PARAMETERS angstrom
12.44742323515439 0.00000000000000 0.00000000000000
0.00000000000000 12.47894459989779 0.00000000000000
0.00000000000000 0.00000000000000 12.45865196197752

ATOMIC_POSITIONS angstrom
O 3.2633783622 3.3055933905 0.1591125082 
H 2.7085750245 2.7064457954 0.7184792208 
O 3.2743389340 0.1693403533 3.2473407453 
O 0.1721798589 3.2914953408 3.2693529948 
H 0.7327995956 2.6973574711 2.7109422135 
O 1.7234391192 1.7368123885 1.7096736033 
H 1.1592956420 1.1441332259 1.1546115805 
H 2.2842146684 1.1404975700 2.2668109315 
H 4.2611666954 4.2663463158 1.1658640532 
H 4.2706352691 1.1505864817 4.2452740062 
H 1.1494170828 4.2677061191 4.2679931577 
H 6.9501070048 0.7055773971 0.7107027737 
O 6.4245159776 3.2644966615 3.2673664156 
H 5.8264888539 2.7055337284 3.8240693040 
H 5.8331149741 3.8277441640 2.7088205119 
O 7.9547521592 1.6706552213 1.7081045927 
H 7.3959673682 2.2664006889 2.2656844837 
H 7.3773208764 4.2603833423 4.2594581294 
H 12.0596658386 2.7006066039 3.8307864574 
H 10.0630706425 3.8151246563 0.7001330856 
O 9.5039125259 0.1440506052 3.3076958178 
H 8.9485055988 0.7042556746 2.7112703945 
H 8.5110341657 2.2620631292 1.1430566976 
H 11.6220299467 4.2595103326 2.2676962419 
H 10.4963269487 1.1494487008 4.2759112165 
O 3.2648260309 6.3593920637 3.2757360183 
H 3.8227395694 6.9587699521 3.8306985132 
H 2.7070530422 6.9450484000 2.7073802780 
O 1.7156251054 7.9443877853 1.7235893497 
H 1.1531926687 7.3894476720 1.1289555915 
H 4.2669167339 5.3832907857 2.2872013834 
H 2.2643167318 5.3905978942 4.2730391198 
O 4.8575314279 4.8248605946 1.7236586361 
H 6.9491024683 6.9424596122 0.7221363634 
H 5.8347266056 5.8177397912 0.7298448784 
O 7.9388798510 7.9268859261 1.7160804089 
O 11.0644483754 4.8211026499 1.6751593053 
H 10.4951516303 5.3726998591 2.2672481721 
H 12.0399520858 5.8250330216 0.6987666227 
O 9.5280290619 6.3697506000 3.2579690344 
H 8.9308257356 5.8146851205 3.8189494671 
H 8.9392387983 6.9381518809 2.7035944522 
H 10.4956297416 7.3651536245 4.2593542568 
O 0.1816864600 12.6181835896 0.1612246021 
H 2.7195134395 12.0550617289 3.8118423262 
H 3.8347028829 12.0540832847 2.6878240055 
O 3.2740150657 9.4947217419 0.1691382923 
H 0.7219021861 8.9293390672 2.7025406441 
H 0.7299768011 10.0450562389 3.8260800702 
H 2.2791749420 8.5031225123 1.1328537500 
H 4.2703481720 10.4957503737 1.1449810234 
H 7.3751483378 8.5136548875 2.2780581731 
H 5.8252539466 12.0681010977 0.7165263591 
O 4.8269261571 11.0915271993 1.7040758932 
H 5.3833701697 10.5006937933 2.2700846054 
O 6.3724262429 9.5089978478 3.2463207752 
H 5.8150881768 8.9448450420 3.8388457872 
H 6.9348618776 10.0658033862 3.8388646375 
H 8.4929715036 8.5249590331 1.1560051234 
H 8.5047175813 11.6234229471 4.2776261801 
H 12.0406807599 12.0565742038 0.7231246113 
H 10.0615426140 12.0564308448 2.7187690762 
O 12.5805086904 9.4871491049 3.2686761480 
O 9.4870347012 9.5110657531 0.1772503732 
O 11.0448841523 11.0804094748 1.7286274495 
H 11.6071742944 10.4818580440 2.2801223036 
H 10.4859284458 10.4947738926 1.1605446318 
H 11.6111854886 8.4879538759 4.2639950567 
H 0.7282801602 0.6928236064 6.9422660170 
O 3.2939073601 3.2453056031 6.3740173750 
H 2.6991215985 3.8103412503 5.8215089577 
H 2.7028498047 2.6836557487 6.9336778671 
O 1.7103598746 1.6927621939 7.9196557532 
H 4.2595714179 2.2644933060 5.3688534518 
H 4.2579413574 4.2403715385 7.3752984689 
O 4.8592112678 1.7116644523 4.8080660380 
O 6.3757967631 0.1475867595 6.4114524399 
H 5.8210493269 0.7066408878 5.8143531990 
O 7.9308450482 1.7332343615 7.9406274620 
H 7.3706976143 1.1443724273 7.3766590588 
O 11.0865817372 1.7100412872 4.8378845040 
H 10.4903577224 2.2749658400 5.3889244557 
H 12.0582850694 0.7085895207 5.8222491444 
O 9.5206619207 3.2779313720 6.3766154179 
H 8.9265915489 2.7162400268 6.9322076468 
H 8.9281198361 3.8348169980 5.8120051893 
H 10.4900000205 4.2745819493 7.3793008582 
O 1.7067788225 4.8271877560 4.8645651757 
H 0.7139557913 5.8230440751 5.8333160100 
O 1.7026317414 7.9816681029 7.9579301740 
H 1.1454282090 7.3888324256 7.3952665501 
O 7.9682107955 4.8283037514 4.8155547883 
H 7.3722568176 5.3835860702 5.3761702505 
O 4.8233958892 7.9516434908 4.7937367237 
H 5.3790229945 7.3879234350 5.3876148968 
O 4.8119769854 4.8381587095 7.9351500624 
O 6.3656336317 6.3803357171 6.3496804308 
H 6.9237474636 6.9380295762 6.9476601312 
H 5.8053855904 5.8172670526 6.9390415019 
O 7.9219125028 7.9015327369 7.9376425978 
O 12.6017144867 6.3852568501 6.4248207865 
O 11.0486675579 7.9286630885 4.8552951608 
O 11.0518768043 4.8269996626 7.9766157667 
H 11.6113755537 5.3928955101 7.3880596253 
H 12.0412741663 6.9407251401 5.8274446867 
H 4.2679637102 8.5133496299 5.3894771144 
O 1.7275650033 11.0482244960 4.7854332430 
H 1.1724257793 11.6143405529 5.3769017914 
H 2.2907373619 10.4950991985 5.3812674896 
O 0.1745326952 12.5861698549 6.3689726703 
O 3.2755260549 9.5040387825 6.3648853519 
H 3.8354309381 10.0635463939 6.9585113431 
H 2.7115726656 8.9471814473 6.9561644336 
O 7.9096843059 11.0658566019 4.8373813087 
H 6.9390788223 12.0643119154 5.8240040056 
O 4.8292314613 11.0350028906 7.9511005930 
H 5.3895704414 11.6274120406 7.3910907397 
H 8.4845787565 8.4947141429 7.3816880302 
H 8.5007353906 10.5000163204 5.3935528537 
O 9.4596633485 9.4970291155 6.3890420827 
H 10.0547034481 10.0591696129 6.9446675719 
H 10.0511785718 8.9388366996 5.8270335840 
O 11.0249817062 11.0576770226 7.9316392253 
H 11.6180859221 11.6154382276 7.3700739676 
H 2.2748731321 1.1400501385 8.5164859368 
H 1.1489006642 2.2541441480 8.5081807602 
H 3.8256601684 2.7176132059 12.0562475455 
O 3.2724994115 0.1560682301 9.4705769214 
H 3.8326920658 0.7202435133 10.0597956890 
H 0.7080751194 3.8242595828 10.0665376568 
H 2.2719223331 4.2770294908 11.6159680777 
O 6.3840179020 0.1480529196 12.5808571469 
O 4.7979594939 1.7160291626 11.0533341370 
H 5.3859752674 1.1516461176 11.6132430683 
H 5.3958074823 2.2742932217 10.4958684999 
O 6.3528682332 3.2643825837 9.5027233996 
H 6.9428691924 2.7033037012 8.9406527261 
H 6.9490438986 3.8227255480 10.0602798639 
H 5.3745114020 4.2533191465 8.5000578134 
O 9.5011594553 3.2245085675 12.5989866295 
O 12.5914564680 3.2316227707 9.5110473835 
H 12.0324002043 0.6913850758 12.0550350287 
H 8.9418461960 3.8238417789 12.0428859615 
H 12.0355123235 3.8268733314 8.9492566884 
H 10.0527127936 0.6869956421 10.0465458222 
H 8.4934085221 1.1347339713 8.4913231191 
O 11.0437969654 1.6544049306 11.0526167920 
H 10.4843387995 2.2490560545 11.6114869142 
H 11.6045878667 2.2495145099 10.4954692322 
H 0.7072777628 5.8344990400 12.0343815084 
O 1.6804945923 4.8352027202 11.0530262163 
H 2.2739485423 5.3918160587 10.4897323050 
O 3.2356659792 6.3844266045 9.4964294554 
H 3.8396126527 6.9350550874 10.0554122550 
H 3.8184237975 5.8170100142 8.9339910304 
H 2.2651151950 7.3865372253 8.5134721466 
O 6.3975496291 6.3703837120 12.5922834804 
O 7.9516579275 4.7885427470 11.0599140018 
H 7.3962750099 5.3814164316 11.6247437604 
O 4.8043145754 7.9184657421 11.0418384543 
H 5.3960175915 7.3641076571 11.6073859931 
O 12.5893145296 6.4237974240 12.5932357491 
H 8.5104393614 5.3815771681 10.4983993308 
O 9.4930180479 6.3784783856 9.5228755143 
H 8.9277006022 6.9312531332 8.9286877550 
H 10.0586059254 5.8205181551 8.9320244777 
O 11.0425151650 7.9851450091 11.0524462587 
H 10.4890042133 7.3922211117 10.4870601138 
H 11.6056684778 7.3885694249 11.6074395732 
H 2.7159203904 10.0598753473 12.0381014418 
H 3.8275025682 8.9293884034 12.0352628012 
H 2.7144800405 12.0777785127 10.0678366040 
H 0.7149484215 8.9458091027 8.9463902972 
H 4.2706079081 11.6305009868 8.5095749885 
O 1.7485342550 11.0758245764 11.0595751065 
H 1.1540445053 11.6296645641 11.6240537358 
H 1.1542506513 10.5162915830 10.5005817417 
O 0.1582444834 9.5456169432 9.5037217462 
H 7.3658748502 8.4942965541 8.5022731206 
H 5.3978105791 8.4844068973 10.4875465136 
O 6.3813587666 9.4601022496 9.4964780245 
H 5.8208949470 10.0546909931 8.9387535797 
H 6.9396669976 10.0574710432 10.0554250134 
O 7.9218876992 11.0350042644 11.0339536715 
H 7.3664108606 11.6315277134 11.5942674452 
O 9.4618587760 12.6080798049 9.4822276542 
H 8.9279568217 10.0702767737 12.0433308836 
H 10.0484141917 8.9516500338 12.0435925697 
H 10.0568225324 12.0500394596 8.9225280493 
H 12.0413822167 8.9570029087 10.0641170899 
H 11.6190771352 10.5036433777 8.4975345533 
H 8.4839652588 11.6237779627 10.4709074652 

