&CONTROL
   calculation      = 'vc-relax'
   tstress          = .true.
   tprnfor          = .true.
   outdir           = './'
   pseudo_dir       = '/home/ppiaggi/QuantumEspresso/pseudos'
/
&SYSTEM
   ecutwfc          = 150
   input_dft        = 'SCAN'
   ntyp             = 2
   nat              = 192
   ibrav            = 0
/
&ELECTRONS
   mixing_beta      = 0.5
   startingpot      = 'atomic'
   startingwfc      = 'atomic+random'
/
&IONS
/
&CELL
/

ATOMIC_SPECIES
O 15.999400004115753 O_ONCV_PBE_sr.upf
H 1.0079400002592869 H_ONCV_PBE_sr.upf

K_POINTS gamma

CELL_PARAMETERS angstrom
12.47500584365764 0.00000000000000 0.00000000000000
0.00000000000000 12.46604409444762 0.00000000000000
0.00000000000000 0.00000000000000 12.46443343880608

ATOMIC_POSITIONS angstrom
O 3.2980124222 3.2704137142 0.1707545383 
H 2.7028090716 2.7095009101 0.7283497620 
O 3.2928042482 0.1692033186 3.2680826374 
H 2.7011516292 0.7245275431 2.7023499117 
O 0.1696017485 3.2403265195 3.2557982133 
O 1.7340798448 1.7115525511 1.7034639454 
H 1.1503859788 1.1484335950 1.1381648797 
H 1.1295313866 2.2618361670 2.2632188563 
H 4.2763616815 1.1599213001 4.2632793932 
H 4.2585817361 4.2706190200 1.1494294671 
H 1.1402555815 4.2364971308 4.2584346230 
H 6.9487228203 0.6956697189 0.7171505113 
O 6.4174522293 3.2865013780 3.2564154676 
H 5.8241789594 3.8447525200 2.6953791657 
H 5.8257796129 2.7250510474 3.8159583416 
O 7.9441236886 1.6789544783 1.7091752386 
H 7.3864355592 2.2777940524 2.2644963861 
H 7.3882379310 4.2686590815 4.2557648654 
H 12.0461065009 3.8068855109 2.7079595897 
H 12.0550564396 2.6852559275 3.8250291573 
O 9.4684743599 3.2630558343 0.1558399320 
H 10.0529514944 3.8251619247 0.7220154546 
H 8.9359839056 0.7200864342 2.7038763411 
H 10.0557758089 0.7147813288 3.8229022762 
H 8.5060691029 2.2684225899 1.1467968314 
O 3.2517336262 6.3863291722 3.2469677765 
H 2.6937145473 5.8137258955 3.8286871472 
H 3.8120321080 6.9349999141 3.8491972906 
O 1.7001142870 7.9658239328 1.7074114505 
H 1.1423700114 7.3665308346 1.1531710141 
H 2.2580647200 7.3778838729 2.2747050242 
H 4.2595410417 5.3934876119 2.2646199230 
O 4.8529041018 4.8391368039 1.7011042687 
H 5.8265589756 5.8301324674 0.6966182021 
O 7.9431996953 7.9473949121 1.7304780681 
H 7.3866559970 7.3870477979 1.1347517953 
O 12.6141873395 6.3573055411 0.1884816357 
O 11.0510339045 4.7864234042 1.7297459495 
H 10.4944718928 5.3872590956 2.2847371370 
H 11.6124627134 5.3711811355 1.1631849704 
O 9.5062009581 6.3655538305 3.2683308383 
H 8.9478964818 6.9576350992 2.7066349867 
H 10.0688653749 6.9579801124 3.8253673176 
H 8.5063070527 5.3898176659 4.2651073066 
H 2.6975913920 12.0745464614 3.8232606746 
H 2.7117710034 8.9347052540 0.7165256537 
H 3.8305397394 10.0548420852 0.7244424655 
O 0.1473222167 9.5347414540 3.2486780162 
H 0.7089091326 8.9372177329 2.6946565251 
H 4.2658299406 11.6253349751 2.2791813426 
H 1.1353237687 10.5023013636 4.2511433157 
O 6.3569215482 12.5952513671 0.1634625921 
O 4.8237855381 11.0251206030 1.7259854809 
H 5.3893900502 11.6107985910 1.1638724046 
H 5.3858501174 8.4808906996 4.2863432036 
O 6.3820899577 9.4775394570 3.3058163445 
H 5.8241677170 10.0450486546 2.7188335114 
H 6.9441260014 8.9271631359 2.7053114392 
H 7.3831371957 10.4776805571 4.2591591209 
H 12.0675279174 12.0514102280 0.6983376943 
O 9.4988262265 12.5905458231 3.2589226014 
H 12.0683367493 8.9447970026 3.8172134562 
H 10.0637442172 10.0757453618 0.6998283203 
H 8.5014997689 8.5115766626 1.1405158407 
O 11.0627066553 11.0692240881 1.6683112000 
H 10.5030820206 11.6285098516 2.2617831494 
H 11.6220341375 10.5074329435 2.2596832250 
H 8.4966672573 11.6028394093 4.2536015204 
O 3.2385610302 3.2635768724 6.3803199876 
H 3.8377022270 2.7084235562 5.8230184071 
H 3.8240818070 3.8260576874 6.9457984575 
O 1.6924950816 1.7191533758 7.9653383694 
H 1.1365020807 1.1564372642 7.3720452043 
H 2.2572155444 2.2742842622 7.3727041791 
H 2.2592936961 4.2456028445 5.3794120061 
O 4.8437149483 1.7480913945 4.8200908401 
H 5.4002816012 1.1496960987 5.3776347277 
O 6.3889576505 0.1766452331 6.3692201671 
O 7.9723792634 1.7182815295 7.9343251308 
H 7.3870334474 1.1545388585 7.3713711095 
O 12.6142287226 0.1717963892 6.3804195274 
O 11.0627673909 1.7080831682 4.8048102686 
H 10.5050221964 2.2704446628 5.3966920840 
H 11.6194722256 1.1436742049 5.3965301329 
O 9.5377896605 3.2739822526 6.3953233885 
H 8.9472895158 3.8314775537 5.8305146254 
H 8.9412929908 2.7151819256 6.9532809808 
H 10.5055638002 4.2690176182 7.3776757598 
O 1.6969874655 4.8333967255 4.8167328006 
O 0.1617198887 6.4112425082 6.3727164759 
H 0.7132363321 5.8122501252 5.8111533083 
O 1.6916860013 7.9546466428 7.9625532018 
H 1.1461788405 7.3864963597 7.3639533375 
O 7.9513778496 4.8209623137 4.8528976263 
O 4.7885572433 7.9286527398 4.8484432600 
H 5.3782405414 7.3664105175 5.4098778669 
O 4.8027408886 4.7898017117 7.9547388047 
H 5.3708036728 5.3772785764 7.3979349254 
O 6.3498278445 6.3662273066 6.3964200217 
H 6.9473408317 6.9324531133 6.9467651039 
H 6.9412588878 5.8123178685 5.8299792874 
O 7.9125430862 7.9258407403 7.9230515600 
O 11.0755822426 7.9483202721 4.7964485871 
H 11.6402319252 7.3871513543 5.3835117200 
O 11.0974088594 4.8361816971 7.9327566078 
H 12.0701611041 5.8231707101 6.9309327953 
O 1.6892730000 11.0938957873 4.8187191364 
H 2.2511050671 10.4981157668 5.3738217700 
H 0.6979030012 12.0428475055 5.8201640027 
O 3.2286314869 9.5083259058 6.3702490801 
H 3.8205447375 10.0674938214 6.9310894435 
H 3.8224696523 8.9368865113 5.8223307072 
H 2.2569678844 8.5141873645 7.3750541493 
O 7.9450366687 11.0390213221 4.8492838985 
H 5.8215026064 12.0576684328 6.9297695627 
H 6.9440095609 12.0417017764 5.8137332811 
O 4.8185929825 11.0670164883 7.9008147811 
H 8.5093463348 8.4868612221 7.3679052338 
H 10.5163178329 8.5039322014 5.3937847896 
H 12.0567733459 12.0481321683 6.9438181188 
O 9.5080207911 9.4639045837 6.3864925782 
H 8.9486626176 10.0549880916 5.8248538734 
H 10.0595955602 10.0568177866 6.9544116000 
O 11.0462404013 11.0528285300 7.9291567048 
O 0.1503381329 0.1725346575 12.5946161066 
H 2.7057470738 3.8250864119 12.0698701156 
H 3.8192849967 0.7134723889 10.0659924493 
H 2.7012338263 0.7228784404 8.9449234406 
O 0.1552214045 3.2766822015 9.5253039458 
H 0.7093698329 2.7128762817 8.9294045853 
H 4.2651002372 2.2629609932 11.6448448998 
H 1.1442069906 4.2604504408 10.4945519526 
O 4.8183798318 1.6971522482 11.0514713670 
H 5.3780884597 1.1349741178 11.6413460393 
O 6.3943179350 3.2412960364 9.4926343021 
H 5.8088050733 2.6834475349 10.0617321902 
H 5.7947435685 3.8046347275 8.9435982080 
H 7.3697398267 2.2675225786 8.4954840610 
H 7.3728141813 4.2417930104 10.4928280981 
H 10.0715208205 2.7109842826 12.0622240830 
H 12.0696937652 3.8368153005 8.9335411910 
H 10.0610736632 0.7356292706 10.0671097161 
H 8.9455649495 0.7338633096 8.9411649901 
O 11.0379059924 1.7283723536 11.0712007826 
H 11.6288487005 2.2852853886 10.5069803331 
H 11.6335257647 1.1585932073 11.6183129313 
H 8.4911743678 4.2510900898 11.6126692978 
H 0.6999002091 5.8012632264 12.0564308138 
H 4.2469780490 5.3884258953 8.5120116928 
O 1.7034698526 4.8170330179 11.0924994832 
H 2.2562158687 5.3868040151 10.5039833649 
O 3.2560616545 6.3695036790 9.5028078819 
H 3.8194214762 6.9661418533 10.0550492844 
H 2.6950943935 6.9595430190 8.9417022417 
O 6.3933590142 6.4166163117 12.6020005964 
H 6.9457094683 5.8172799209 12.0418468772 
O 7.9312714258 4.8390577154 11.0480967558 
O 4.8309349756 7.9581216315 11.0205156346 
H 5.3907609777 7.3920119255 11.6069099467 
H 8.5034852222 7.3718881401 8.4907942738 
H 12.0527464234 6.9181691883 12.0633923205 
H 10.5017743939 5.3910253554 8.4939058705 
O 9.4983109018 6.3810666120 9.4686114998 
H 8.9359191548 5.8174479749 10.0539105575 
H 10.0531956960 6.9394212479 10.0681105870 
O 11.0487669812 7.8982294981 11.0677606407 
H 4.2634991797 11.6253676714 8.4984979534 
H 0.7111895868 12.0415945954 12.0413189265 
O 3.2749683306 9.4950516418 12.5921411845 
O 3.2613751854 12.5924760845 9.4989246491 
H 0.6997921915 10.0470882291 10.0650591078 
H 0.6926987132 8.9360112085 8.9398817831 
H 4.2713573525 8.5106701764 11.6208405951 
O 1.6817795613 11.0370477842 11.0449140182 
H 2.2714054405 11.6022362920 10.4876053067 
H 2.2764447277 10.4842718238 11.6092656177 
H 5.3814416045 10.5031600983 8.4873163045 
H 6.9496895144 12.0448709062 12.0597119824 
O 6.3794747748 9.5324727667 9.4743438270 
H 6.9378283724 8.9358754632 8.9184690634 
H 5.8235521316 8.9434795820 10.0422734133 
O 7.9443829481 11.0612115219 11.0706698859 
H 7.3890475361 10.5049841904 10.4713484213 
O 9.5038071159 12.6096797193 9.5049577335 
O 9.5038047838 9.4786995341 12.6087050078 
H 11.6064651154 10.4943202088 8.5230442945 
H 10.4931210036 11.6214523756 8.5192538898 
H 10.4929124917 8.4962918507 11.6261945824 
H 11.6114017058 8.4888129127 10.5080474636 
H 8.9450227836 10.0668544818 12.0434737841 
O 12.5768842660 9.4875074943 9.5100477771 
H 8.5068855503 11.6261520856 10.4852460310 

