&CONTROL
   calculation      = 'vc-relax'
   tstress          = .true.
   tprnfor          = .true.
   outdir           = './'
   pseudo_dir       = '/home/ppiaggi/QuantumEspresso/pseudos'
/
&SYSTEM
   ecutwfc          = 150
   input_dft        = 'SCAN'
   ntyp             = 2
   nat              = 192
   ibrav            = 0
/
&ELECTRONS
   mixing_beta      = 0.5
   startingpot      = 'atomic'
   startingwfc      = 'atomic+random'
/
&IONS
/
&CELL
/

ATOMIC_SPECIES
H 1.0079400002592869 H_ONCV_PBE_sr.upf
O 15.999400004115753 O_ONCV_PBE_sr.upf

K_POINTS gamma

CELL_PARAMETERS angstrom
12.45673359131188 0.00000000000000 0.00000000000000
0.00000000000000 12.47075330582897 0.00000000000000
0.00000000000000 0.00000000000000 12.45356185914630

ATOMIC_POSITIONS angstrom
H 0.7064328067 0.7137101652 0.7103002903 
H 3.8405630520 3.8354954478 0.6999501916 
O 3.2795912002 0.1905677580 3.2511444720 
H 0.7160101541 2.7104233338 2.7006291812 
O 1.6872138183 1.7211868992 1.6991512415 
H 2.2727252205 2.2822561776 1.1336075623 
H 2.2884608334 1.1637639128 2.2526954239 
H 4.2571309292 1.1474615783 4.2552108863 
H 1.1502671850 4.2514330961 4.2784883657 
H 5.3809477283 4.2679570899 2.2712090770 
H 6.9437025884 0.7026912979 0.7242546322 
O 6.3632288092 3.2887212544 3.2660770299 
H 6.9281527385 2.6895145419 2.7189012550 
H 5.8033375064 2.7011553974 3.8332907843 
O 7.9138659114 1.6882607527 1.7279698600 
H 7.3641018436 4.2608663106 4.2466553764 
O 12.6075035002 3.2611262867 3.2967002700 
H 8.4992866312 1.1248174319 2.2915046644 
H 8.5149209275 2.2471055099 1.1761619580 
H 12.0537242203 3.8313124960 2.7076961315 
O 9.5104427960 3.2237606281 0.1765654822 
H 10.0739298769 3.8155803055 0.7342037102 
H 10.0663314366 0.6907297992 3.8342854907 
H 11.6138309958 2.2657502212 4.2557173555 
H 4.2673816313 5.3931674829 2.2694308927 
O 3.2911773999 6.3862955101 3.2766045707 
H 2.6893401047 6.9438854177 2.7222139518 
H 2.7054316336 5.8241379425 3.8404374784 
O 1.7340190608 7.9341723616 1.7338527231 
H 1.1399493799 7.3807341602 1.1678487719 
H 4.2546469382 7.3767337364 4.2593736787 
O 4.8324455220 4.8384492875 1.6777167318 
H 5.8232018988 5.8309901739 0.7044879666 
O 7.9662623442 7.9484826666 1.6893834533 
H 7.3721367175 7.3841898448 1.1334073971 
O 12.6095960811 6.3903205687 0.1840123939 
O 11.0639595130 4.8051247849 1.7194635405 
H 11.6170021387 5.3956547383 1.1496220634 
H 10.4947049228 5.4009213603 2.2667740936 
O 9.5190430227 6.3982577863 3.2535104962 
H 8.9282750553 6.9549659435 2.6878384396 
H 8.9244797985 5.8340254673 3.8068722160 
H 10.4812086672 7.3906452781 4.2596029673 
H 2.7217154431 12.0605174228 3.8065375219 
H 3.8464639261 12.0710252340 2.6955107558 
O 3.2974830025 9.4820699683 0.1770949217 
H 2.7055132626 8.9241033977 0.7404409835 
O 0.1796448690 9.5066781165 3.2691271949 
H 1.1404473706 8.5020585186 2.2867423333 
H 4.2716789707 10.4824921153 1.1677181483 
H 1.1608763347 10.5042624199 4.2428628299 
H 5.8251026175 12.0518368086 0.7196435723 
O 4.8402841700 11.0805531762 1.7130568835 
H 5.3939677305 10.4923911562 2.2842643911 
O 6.3859325389 9.4935029238 3.2491747487 
H 5.8224261539 8.9288396526 3.8353182885 
H 6.9420902265 10.0512944211 3.8470451511 
H 7.3737969763 8.5007017287 2.2572177954 
O 9.4709607645 12.5919557300 3.2856222876 
O 12.5996991146 12.5890198613 0.1577094082 
H 8.5060157478 11.6133172151 4.2800412068 
H 10.0620124437 12.0384540242 2.7177974476 
H 12.0438534034 8.9457175332 3.8286119005 
H 12.0434155732 10.0573043774 2.6992614272 
H 8.9166002317 8.9370214198 0.6977057192 
O 11.0540995589 11.0438707527 1.7311539478 
H 11.6063171465 11.6134686662 1.1395929700 
H 10.4901047863 10.4886920854 1.1383589300 
O 0.1705898268 0.1503627000 6.3938114319 
O 3.2396146053 3.2689172924 6.3937308222 
H 3.8386876102 3.8244517494 6.9511402261 
H 3.8243872216 2.7048762443 5.8290248112 
O 1.6997912796 1.7033710647 7.9737771379 
H 1.1498454568 1.1439906953 7.3700179647 
H 2.2632080753 2.2671261714 7.3877825423 
H 2.2690614679 4.2522360084 5.4014637265 
O 4.8108114156 1.7392351726 4.8241515144 
H 5.3734909936 1.1447510047 5.3801897947 
H 6.9298298211 0.7044253979 6.9394277990 
O 7.9274704106 1.7036427896 7.9062492622 
O 11.0559547970 1.6717900850 4.8174341685 
H 10.4917002542 2.2627266264 5.3752777645 
H 12.0601947278 0.7071891274 5.8041054408 
O 9.4857138007 3.2521092198 6.3371976777 
H 10.0408976360 3.8137746451 6.9327576923 
H 8.9226876515 2.6948604559 6.9292373419 
H 8.4902473277 4.2508716337 5.3584993574 
O 1.7036542286 4.8436805867 4.8447589716 
H 0.7022097311 6.9436513361 6.9397596702 
H 0.7091326802 5.8191218018 5.8252034972 
O 1.7042465883 7.9453183886 7.9112767225 
O 7.9348486838 4.8492089434 4.8005811125 
O 4.8489530452 7.9372256298 4.8187640902 
O 4.8057036025 4.8206041604 7.9427694556 
H 5.3983887335 5.3810654628 7.3846712458 
O 6.3955662072 6.3874813418 6.4038379224 
H 6.9488139944 5.8255477641 5.8071228130 
H 5.8306533444 6.9444480797 5.8134426151 
O 7.9788735533 7.9361008844 7.9463659516 
H 7.3899105430 7.3792611020 7.3797346526 
O 11.0441724440 7.9784025316 4.8219026651 
H 11.6018566596 7.3809570993 5.3795842415 
O 11.0362194860 4.7857241528 7.9318129012 
H 11.5990138382 5.3777108186 7.3751798599 
O 12.5697350702 6.3869776655 6.3740094046 
O 1.7304342369 11.0975231454 4.7933976459 
H 2.2799165832 10.5019366672 5.3615239611 
H 0.7306688471 12.0648388431 5.7978373934 
O 3.2534174769 9.5006023267 6.3441853766 
H 3.8140298540 10.0592838066 6.9374375656 
H 2.6932918977 8.9400764243 6.9362769742 
H 4.2566066135 8.4989716060 5.3765422106 
O 6.3395326037 12.6168462166 6.3752902144 
O 7.9069100926 11.0593033137 4.8404691894 
H 6.9361863154 12.0543529591 5.8205197245 
O 4.7873349814 11.0562762836 7.9265565784 
H 5.3788889057 11.6215537297 7.3697245999 
H 8.4974181029 10.5022776296 5.4050648436 
O 9.5131694227 9.5354462478 6.4024626365 
H 10.0634765407 8.9462969078 5.8286994417 
H 8.9530864097 8.9372348531 6.9562291183 
O 11.0731794162 11.0827922769 7.9744933227 
H 11.6364525499 11.6345729368 7.3773841348 
H 10.5173295175 10.5154191256 7.3852092034 
O 3.2471664460 3.2815039821 12.5888120430 
H 3.8389632871 2.7109512872 12.0380147927 
H 2.6906242749 0.7007027609 8.9401934182 
H 0.7053400879 2.6960528395 8.9262441630 
H 4.2636532708 1.1369835240 10.4962422880 
H 1.1476417205 4.2648108338 10.4873631935 
H 2.2722757990 4.2661070856 11.6019897250 
H 7.3782393357 2.2682747859 8.5057113088 
O 6.3775173346 0.1514405882 12.5831543755 
H 5.3989770849 4.2621672541 8.5030717842 
O 4.8273268839 1.7306266271 11.0504054216 
H 5.3847173228 1.1389900418 11.6153085961 
O 6.3985224117 3.2625448994 9.4764697058 
H 6.9638926447 3.8165668372 10.0692296804 
H 5.8359100841 2.7034157796 10.0674297366 
H 8.4919369994 1.1455951227 8.4959234375 
O 12.6037795651 3.2562525462 9.5216890459 
H 12.0415581058 0.7113679476 12.0473184255 
H 8.9570026015 3.8224438745 12.0687663809 
H 12.0399295132 3.8139461113 8.9309112327 
O 9.4723831320 0.1522277431 9.5018411326 
H 10.0562961465 0.7178122337 10.0651591536 
O 11.0557618223 1.6780155904 11.0678042098 
H 11.6136858168 2.2689336355 10.5033085280 
H 10.4994915671 2.2721570838 11.6318455003 
H 2.2678307218 7.3844363562 8.4994690484 
H 0.7112307969 5.8297104474 12.0438679806 
O 1.7013028855 4.8582311204 11.0519958638 
O 3.2624873887 6.4128593457 9.4970482144 
H 3.8226113485 5.8157407862 8.9431143067 
H 2.6997218725 5.8243054563 10.0593143976 
H 4.2603143942 7.3861089997 10.5029570096 
O 6.4177040066 6.3862340731 12.5946819007 
H 5.8256659890 6.9500880937 12.0365341450 
O 7.9710466926 4.7844339422 11.0681127201 
H 7.4039745051 5.3821057011 11.6156861283 
O 4.8525437035 7.9491683083 11.0592662352 
H 12.0489350121 6.9523468603 12.0467002398 
H 10.4860210356 5.3808168099 8.5003259443 
H 8.5288004372 5.3761185051 10.5040096962 
O 9.5126970652 6.3431303377 9.4992957821 
H 10.0723283076 6.9404920228 10.0564480889 
H 8.9479681962 6.9357448059 8.9433736306 
O 11.0578000800 7.9116298146 11.0468689285 
H 1.1514995293 8.5057331399 8.5096490637 
O 3.2512391140 12.6102600576 9.5311270086 
H 2.7022810190 10.0445226186 12.0758986565 
H 3.8102685615 12.0539148050 8.9351854901 
O 0.1571655814 9.4786091293 9.5149170534 
H 0.7184813265 10.0643461048 10.0822571953 
O 1.7087106273 11.0238560336 11.0794600567 
H 1.1402589537 11.6171340296 11.6312774159 
H 2.2615419313 11.6169461410 10.5127091662 
H 4.2594337176 8.4997142007 11.6293544121 
H 5.3820778703 10.4971729369 8.4843267463 
O 6.3850662132 9.4937595984 9.4594522968 
H 5.8233316913 8.9427865331 10.0583740889 
H 6.9405442495 10.0655191005 10.0454264871 
H 7.3826990103 8.4946135895 8.5048901083 
O 7.9300356052 11.0411072559 11.0319171059 
H 7.3742306318 11.6289207559 11.6003253493 
O 9.5165510787 9.4923135182 12.5925955260 
H 11.6175127044 8.5093719420 10.4904815744 
H 10.4893334300 8.5015361008 11.6021824557 
H 8.9308217439 10.0564025691 12.0308968318 
H 10.0737920588 12.0741513426 8.9400540987 
H 12.0629242336 10.0803117964 8.9557810175 
H 8.4973301645 11.6379725703 10.4827662816 

