&CONTROL
   calculation      = 'vc-relax'
   tstress          = .true.
   tprnfor          = .true.
   outdir           = './'
   pseudo_dir       = '/home/ppiaggi/QuantumEspresso/pseudos'
/
&SYSTEM
   ecutwfc          = 150
   input_dft        = 'SCAN'
   ntyp             = 2
   nat              = 192
   ibrav            = 0
/
&ELECTRONS
   mixing_beta      = 0.5
   startingpot      = 'atomic'
   startingwfc      = 'atomic+random'
/
&IONS
/
&CELL
/

ATOMIC_SPECIES
O 15.999400004115753 O_ONCV_PBE_sr.upf
H 1.0079400002592869 H_ONCV_PBE_sr.upf

K_POINTS gamma

CELL_PARAMETERS angstrom
12.45111794919203 0.00000000000000 0.00000000000000
0.00000000000000 12.44934152430409 0.00000000000000
0.00000000000000 0.00000000000000 12.48042557427123

ATOMIC_POSITIONS angstrom
O 3.2708780204 3.2441953010 0.1487399645 
H 3.8375275507 3.8387619467 0.7008227153 
H 2.6980507827 0.7325300765 2.7205845982 
H 3.8166100356 0.7360769253 3.8408369313 
H 0.7115158220 2.7046977606 2.7051473050 
O 1.7083431563 1.7166346346 1.7306349763 
H 2.2694757565 2.2763415341 1.1389145394 
H 1.1469523223 1.1591106461 1.1377958582 
H 1.1569609912 4.2808379204 4.2582133345 
H 5.3898998200 2.2914789305 4.2593472575 
O 6.3971606255 3.2705446006 3.2780410728 
H 5.8418094237 3.8305712849 2.6808700740 
H 6.9564532136 2.7062691272 2.6890536830 
O 7.9423164058 1.7260258277 1.6910726768 
H 7.3806621585 1.1331876339 1.1343960504 
H 7.3750857616 4.2676184611 4.2602713525 
O 12.6048402587 3.2940610383 3.2707254225 
H 12.0484638470 2.6990146797 3.8310307393 
H 10.0459893891 3.8369536518 0.7152827035 
H 8.9313319485 2.7133457895 0.7016889663 
H 10.0688772647 0.7086762998 3.8145577895 
H 8.5066760483 1.1352397593 2.2493008249 
H 11.6058836383 4.2680769555 2.2754027583 
H 4.2848358679 5.3948693664 2.2520961882 
H 0.7213802851 6.9266922354 0.7006754468 
O 3.2937670704 6.3816799023 3.2235704280 
H 2.7209293183 5.8331282573 3.8155770153 
H 3.8420996903 6.9494020793 3.8203461011 
O 1.7255032570 7.9276207275 1.6578556957 
H 2.2964648296 7.3718783689 2.2443043758 
O 4.8409641587 4.8015084065 1.6881873826 
H 5.4006122597 5.3945219111 1.1295526577 
O 6.4009011599 6.4075701693 0.1602584105 
O 7.9362890613 7.9438510539 1.7421810432 
H 7.3843393157 7.3861121696 1.1382207300 
O 11.0155845179 4.8307433722 1.7158802216 
H 11.6115573341 5.3831194590 1.1512580638 
O 12.5757489115 6.3669180882 0.1448006271 
O 9.4735626675 6.3837953233 3.3019672281 
H 10.0341457165 5.8247732993 2.7089621673 
H 8.9149533251 6.9456653247 2.7079258249 
H 10.4773991673 7.3823828389 4.2666083325 
H 8.4837564882 5.3960303766 4.2683366791 
O 3.2502981664 12.5908877527 3.2898973340 
H 3.8114627689 10.0572143634 0.7048926003 
H 2.7004880810 8.9311559375 0.6917297849 
O 0.1870124432 9.4677293738 3.2327181190 
H 0.7397989279 10.0333586334 3.8279716810 
H 1.1733330061 8.4839205942 2.2632230049 
H 4.2423429775 11.6032095964 2.2834871705 
H 2.2673165282 11.6210400839 4.2743158708 
H 5.3881350296 8.5012959239 4.2793747572 
H 5.8048449200 12.0294987145 0.7064179927 
O 4.7971703673 11.0379719513 1.6924682552 
H 5.3596031294 10.4828868681 2.2877246464 
O 6.3463196183 9.4961276419 3.2786513968 
H 6.9391549287 8.9393179644 2.7159554588 
H 6.9406021066 10.0631472206 3.8301919931 
O 9.4793390846 12.6045350996 3.2439780435 
H 8.5150470565 11.6152391626 4.2384357608 
H 12.0474647758 12.0396754761 0.7005853936 
H 10.0745092092 12.0385746306 2.6932188217 
H 12.0687812694 8.9158574134 3.8241982010 
O 9.5054952827 9.4862345488 0.1784516672 
H 8.5060473123 8.5003987817 1.1554075625 
O 11.0764244401 11.0624060599 1.7015301984 
H 10.5130678913 10.4707486117 1.1435448287 
H 11.6392006700 10.4698835556 2.2578873804 
H 0.6982638239 0.7034037051 6.9523175564 
O 3.2594135476 3.2811537833 6.4167638810 
H 3.8279033457 2.7285043135 5.8245668360 
H 2.7102110602 3.8486985841 5.8214116103 
O 1.6804352430 1.7058701491 7.9489548751 
H 2.2698973641 2.2657664380 7.3863602556 
H 4.2556532977 4.2595320268 7.3962517730 
O 4.7980563107 1.7408576115 4.8286563832 
H 5.3907386069 1.1738158384 5.3820415391 
O 6.3794458846 0.1963301872 6.3676732540 
O 7.9249319922 1.7231523642 7.9704552007 
H 7.3668377176 1.1674645839 7.3716710679 
O 11.0467687318 1.6988543008 4.7988662052 
H 11.6050197354 1.1382607189 5.3937161515 
H 10.4901074471 2.2620188339 5.3906731428 
O 9.4913632920 3.2486292535 6.3827765899 
H 8.9290959655 3.8431940193 5.8266481694 
H 10.0548354010 3.8387486309 6.9405160534 
H 8.4866759379 2.2856407799 7.3815901132 
O 1.7489884880 4.8470981602 4.8112305968 
H 1.1537254699 5.4061883113 5.3707382796 
O 0.1901884159 6.3886816043 6.3655682318 
O 1.7343056470 7.9394191600 7.9286451039 
H 1.1441147189 7.3787744286 7.3649771721 
O 7.9280574091 4.8282383668 4.8593167955 
O 4.8256102446 7.9067691433 4.8352922138 
O 4.8172860426 4.8185160944 7.9897330762 
H 5.3810993426 5.3706670047 7.3911092653 
O 6.3674780984 6.3570083482 6.4221378213 
H 6.9275992662 5.8007973129 5.8238764362 
H 5.8086265439 6.9209066132 5.8317420732 
O 7.9716169440 7.9246765609 7.9309845482 
H 7.3731792421 7.3612515055 7.3810768743 
O 11.0766342229 7.9407561640 4.8209261893 
O 11.0632886252 4.8435804374 7.9082943753 
H 12.0441302597 6.9490355136 5.8093299249 
H 12.0507375865 5.8310118744 6.9315681137 
H 4.2638066402 8.4972242645 5.3967265927 
O 1.7114482516 11.0154409089 4.8256192855 
H 1.1431492576 11.5953695451 5.3892315933 
O 3.3026985117 9.4874204108 6.3911873693 
H 2.7145487555 10.0480136174 5.8276670405 
H 2.7036579666 8.9302207557 6.9484449510 
H 4.2904447833 10.4755373181 7.3823542420 
O 7.9196945189 11.0616840419 4.8029211066 
H 6.9457679227 12.0635539644 5.8043210896 
H 5.8325908915 12.0415001283 6.9290866823 
O 4.8579889357 11.0720529355 7.9305768659 
O 12.5880470999 12.5924976699 6.3619505271 
H 8.5096744166 10.5023800272 5.3664483015 
H 10.4903585881 8.5073464589 5.3820996548 
H 12.0276672301 12.0336767559 6.9569988203 
O 9.4994165312 9.5004677904 6.3477653613 
H 10.0532724356 10.0618265714 6.9461783037 
H 8.9378028669 8.9365288521 6.9342247086 
O 11.0380847082 11.0441516461 7.9160487997 
H 2.7179985240 3.8354696576 12.0612337309 
H 3.8388562622 0.7087877939 10.0668165625 
H 0.7113317241 2.7083425386 8.9420162621 
H 2.2754851422 1.1441217922 8.5038600463 
H 4.2599984501 2.2712227441 11.6380004841 
H 1.1601396943 4.2760750938 10.4848762115 
H 5.8090133288 0.6984481545 12.0667760469 
O 4.8212016872 1.6782577231 11.0790340717 
H 5.3788880103 2.2719784053 10.5174488169 
O 6.3721955562 3.2663461718 9.5442452169 
H 5.8083874812 3.8260700618 8.9536368656 
H 6.9306205847 2.7108819213 8.9456556326 
H 7.3726635816 4.2713333478 10.4988415182 
O 12.5966398840 0.1899986533 12.6170974142 
H 11.6166880411 4.2797886370 8.5042961199 
O 12.6013688574 3.3062967856 9.4947179614 
O 9.4840384109 3.2867791193 12.5956225105 
H 12.0421906139 2.7199512886 10.0617574578 
H 10.0470290547 0.7338562541 10.0641329838 
H 8.9244905693 0.7341050134 8.9464249887 
O 11.0442913873 1.7332522286 11.0378215297 
H 11.5977574659 1.1679295035 11.6318908832 
H 10.4815751625 2.2912667709 11.6296645875 
H 8.4942970441 4.2711044076 11.6189353117 
H 0.7165353776 5.8101744665 12.0612194997 
O 1.7200209523 4.8313871139 11.0816850737 
H 2.2833791579 5.3936661360 10.4930377981 
O 3.2741083761 6.3847533888 9.5294245905 
H 2.7096730524 6.9372044254 8.9352331448 
H 3.8300583179 5.8165278591 8.9390533584 
H 4.2613770194 7.3857016363 10.4993999898 
H 6.9567709839 5.8456000100 12.0451913530 
H 5.8348890393 6.9636971430 12.0497829043 
O 7.9384073099 4.8628969186 11.0540775704 
O 4.8515022386 7.9484885235 11.0592269978 
H 10.5000987135 5.4033525744 8.4980166678 
O 9.5275410375 6.3929650843 9.4957389013 
H 8.9315534362 6.9452200643 8.9298815278 
H 8.9367914378 5.8303874947 10.0550263063 
O 11.0548992303 7.9603325310 11.0625413484 
H 11.6121368441 7.3641044388 11.6210422515 
H 10.4937346233 7.3734684543 10.4969700270 
O 3.2523826890 12.5998343738 9.4980866599 
H 0.7041990638 12.0528562514 12.0502046473 
O 3.2581698509 9.4993810624 12.5841920430 
H 3.8513337481 12.0467043997 8.9393249025 
H 0.7045506215 10.0610036474 10.0594941771 
H 1.1388876818 8.4967751564 8.4871977642 
O 1.6760935050 11.0573551128 11.0440810113 
H 2.2776004319 11.6111868789 10.4874828842 
H 2.2617785311 10.4960220232 11.6103233229 
H 4.2578610032 8.5103190843 11.6167714273 
O 6.3994868729 12.5788444063 12.6204782456 
H 5.4154184100 10.4821166595 8.4953599835 
O 6.4073951688 9.4810058551 9.4766586279 
H 6.9655616195 10.0410029143 10.0714247917 
H 5.8351075645 8.9312376522 10.0674430698 
H 7.3848545650 8.4846912140 8.4976531048 
O 7.9554212056 11.0122821581 11.0646830418 
H 7.3853816073 11.5957571881 11.6235949043 
H 11.5994122972 10.4875497508 8.5130818285 
H 10.4812619109 11.6095466767 8.5059902024 
O 12.5908695704 9.5029657801 9.4686466790 
H 10.0612417376 8.9213324072 12.0664751452 
H 8.9456573632 10.0430582619 12.0624101340 
O 9.4849795741 12.5910599990 9.5058653983 
H 12.0401005121 8.9361119789 10.0638638317 
H 8.5062342441 11.6132469280 10.5044928224 

