&CONTROL
   calculation      = 'vc-relax'
   tstress          = .true.
   tprnfor          = .true.
   outdir           = './'
   pseudo_dir       = '/home/ppiaggi/QuantumEspresso/pseudos'
/
&SYSTEM
   ecutwfc          = 150
   input_dft        = 'SCAN'
   ntyp             = 2
   nat              = 192
   ibrav            = 0
/
&ELECTRONS
   mixing_beta      = 0.5
   startingpot      = 'atomic'
   startingwfc      = 'atomic+random'
/
&IONS
/
&CELL
/

ATOMIC_SPECIES
H 1.0079400002592869 H_ONCV_PBE_sr.upf
O 15.999400004115753 O_ONCV_PBE_sr.upf

K_POINTS gamma

CELL_PARAMETERS angstrom
12.46426033684126 0.00000000000000 0.00000000000000
0.00000000000000 12.47696181622233 0.00000000000000
0.00000000000000 0.00000000000000 12.45428639598523

ATOMIC_POSITIONS angstrom
H 0.7202337333 0.6986124508 0.7228757408 
O 3.2401007510 3.2710610157 0.1798661654 
H 3.8324983584 3.8398801224 0.7308696773 
H 2.7147355833 0.7014944875 2.7272899489 
O 0.1756210935 3.2529598090 3.2710485226 
O 1.7150154865 1.6691268186 1.7262183569 
H 1.1495036825 2.2558654464 2.2874492305 
H 2.2742533571 2.2687953499 1.1736221560 
H 4.2738530306 1.1442084376 4.2727341185 
H 1.1435287772 4.2531901198 4.2627668589 
H 5.3972036545 4.2771225589 2.2765866858 
O 6.3730997646 0.1554351242 0.1830502501 
O 6.3904895752 3.3005044898 3.2669378216 
H 5.8299965981 2.7087718040 3.8269492365 
H 6.9468761878 2.7045723125 2.7052842057 
O 7.9289138560 1.7346202507 1.7203307474 
H 7.3664255424 1.1481370761 1.1558959684 
H 7.3814506958 4.2726597867 4.2510775799 
H 12.0387081136 2.6964351823 3.8249840413 
H 12.0529455477 3.8140738455 2.7047369991 
O 9.5197818822 3.2644955169 0.1701059060 
H 8.9295679988 2.6998168102 0.7282545435 
O 9.4779481534 0.1685252605 3.2557489312 
H 8.4867477253 1.1333809933 2.2751327215 
H 10.4935568700 4.2484499307 1.1568606977 
H 10.4659719144 1.1496755440 4.2559152181 
O 3.2249566498 6.3769094378 3.2622126079 
H 3.8148157838 6.9378151954 3.8238285691 
H 3.8238744608 5.8247513028 2.7003933373 
O 1.6763883458 7.9700187903 1.7176369295 
H 1.1247099187 7.3729957584 1.1527323991 
H 2.2416927469 7.3781675239 2.2728228356 
H 2.2619924946 5.3749159712 4.2557677989 
O 4.8052726171 4.8411339989 1.7194620929 
H 5.3999080976 5.3962767792 1.1560145493 
O 6.3945726851 6.3814545737 0.1799510999 
O 7.9770465920 7.9303063456 1.7121408479 
H 7.3882842248 7.3714796058 1.1465647848 
O 11.0950052785 4.8059114950 1.7110285628 
H 10.5086687410 5.3719039253 2.2718625031 
H 12.0611370553 5.8050217928 0.7067864800 
O 9.5150641529 6.3507749319 3.2601613486 
H 10.0615598922 6.9486099004 3.8273771962 
H 8.9479640854 6.9385256625 2.7017906263 
H 8.5041482151 5.3892332987 4.2574648657 
O 3.3047394114 12.6139778482 3.2856901270 
H 2.7054517856 12.0565936146 3.8423003798 
H 3.8067780590 10.0567253519 0.7265683840 
H 2.6798942065 8.9455524944 0.7240231686 
H 0.6838649677 8.9375081953 2.7015223039 
H 4.2680871297 11.6188237278 2.2869575788 
H 1.1396448960 10.5063818840 4.2615108711 
H 5.3800216268 8.4856168099 4.2600087128 
O 4.8259204295 11.0272216094 1.7233775050 
H 5.3786693597 11.6230688546 1.1610041901 
O 6.3763008736 9.4527388542 3.2609817730 
H 5.8148904611 10.0520127829 2.7086609612 
H 6.9327377648 10.0413481123 3.8284475932 
H 7.3793629944 8.4899305450 2.2670424376 
O 12.5942747060 9.5387627550 3.2599324154 
H 12.0573722231 12.0638151109 0.7197596811 
H 10.0427659065 12.0550044652 2.6971677533 
H 8.9237019635 12.0490184106 3.8165278069 
H 12.0324349988 8.9506575169 3.8221350585 
H 8.9456439674 8.9336793788 0.7132071045 
O 11.0459539542 11.1023043277 1.7094264644 
H 10.4926408519 10.5055428250 1.1472574667 
H 11.6057013349 10.5077019157 2.2691682498 
H 0.6986145650 0.7249893582 6.9302108279 
O 3.2959444083 3.2624770546 6.3783456897 
H 2.7052461390 3.8232697525 5.8165818443 
H 2.6974889014 2.7063929232 6.9363574931 
O 1.6910510797 1.7203868615 7.9029986402 
H 4.2774344755 4.2600221967 7.3750637846 
H 4.2673748505 2.2668428868 5.3858993181 
O 4.8651991623 1.7092085335 4.8289594562 
H 6.9578812926 0.6988530488 6.9390778735 
H 5.8350543666 0.7130487094 5.8221783450 
O 7.9210995317 1.6941634601 7.9371657521 
H 8.5045732422 2.2668765166 7.3800258870 
O 11.0615961840 1.7066246879 4.8154220486 
H 10.4719962176 2.2675877639 5.3774608022 
H 12.0427666182 0.7159899436 5.8110530388 
O 9.4857744411 3.2437567594 6.3861212765 
H 10.0525329300 3.8366133301 6.9390907961 
H 8.9293025801 3.8357103964 5.8225989311 
O 1.7032080750 4.8172316069 4.8517332285 
H 0.7121954123 5.8175215479 5.8265755637 
H 0.7216216614 6.9362750998 6.9454045923 
O 1.7308954581 7.8970275230 7.9353030706 
O 7.9390071489 4.8321349658 4.8477088261 
O 4.8161315298 7.9012427165 4.8251216113 
O 4.8444925200 4.8145221842 7.9655509883 
H 5.3999450300 5.3776892416 7.3694937796 
O 6.3814105610 6.3740808026 6.4120301018 
H 6.9439737323 5.8200137344 5.8154809733 
H 5.8189506607 6.9331981196 5.8206347524 
O 7.9293017471 7.9708643565 7.9579408747 
H 7.3735823661 7.3784783564 7.3944570897 
O 11.0417198610 7.9480975657 4.8045284578 
H 11.6072081263 7.3908897204 5.3926644295 
O 11.0201360709 4.8297889065 7.9320432347 
H 11.6182117258 5.3936183469 7.3802524516 
O 12.5873731880 6.3776075434 6.3899573229 
H 4.2652090760 8.5045532419 5.3824451061 
H 2.2887510327 8.4885086073 7.3725830775 
O 1.7336269683 11.0621758976 4.8230262183 
H 1.1416696350 11.6275056803 5.3786649615 
O 3.2759868807 9.4745128155 6.3780226513 
H 2.7109387878 10.0674447085 5.8237986068 
H 3.8319095562 10.0682774758 6.9408809908 
O 7.9334912058 11.0386672991 4.7943418712 
H 7.3770280119 11.6063055678 5.3830429048 
O 6.3906338854 12.5903945582 6.3788933181 
O 4.8006636771 11.0699073676 7.9409406883 
H 5.3934851543 11.6277169803 7.3790080054 
O 12.6118411685 12.6048440134 6.3658246966 
H 10.4866919774 8.5094542690 5.4009174341 
H 8.4983564305 10.4897090814 5.3926100122 
O 9.4973948028 9.5054929250 6.3639687423 
H 10.0611289131 10.0672322938 6.9518572468 
H 8.9384326524 8.9492321556 6.9598406051 
O 11.0732758859 11.0371482210 7.9286870578 
H 11.6296200473 11.6312526579 7.3660161420 
H 1.1300808228 2.2790163589 8.4962590992 
H 2.2474158652 1.1575031854 8.4959753048 
O 0.1575486213 0.1438716416 12.5820946911 
H 3.8335388240 2.7185227954 12.0680220942 
O 3.2479549141 0.1822539835 9.4868150185 
H 0.7085683567 3.8262580305 10.0577536558 
H 4.2568154698 1.1585786015 10.4931452347 
H 2.2787895847 4.2556998535 11.6285091926 
H 5.8154931835 0.7155070877 12.0426137745 
O 4.8183378145 1.7174553010 11.0838251949 
H 5.3800419960 2.2718972391 10.4860781370 
O 6.3751255660 3.2544877957 9.5219004883 
H 6.9390445065 2.6932373637 8.9346293204 
H 5.8240050683 3.8180443819 8.9219442601 
H 7.3656831024 4.2527846962 10.4886836636 
O 12.6029125690 3.2716173780 9.4703945711 
H 8.5224539292 1.1449604880 8.4984027184 
H 8.9245781538 3.8176526093 12.0612981888 
H 12.0539990757 2.7079962353 10.0709789966 
O 9.5237546985 0.1569026408 9.4671891457 
H 10.0854255339 0.7154276278 10.0591675791 
H 11.6087126705 4.2739138862 8.5001042840 
O 11.0752756380 1.7109464765 11.0349574488 
H 10.5092061466 2.2636597875 11.6275924142 
H 11.6314525719 1.1464210068 11.6282679099 
O 0.1533809944 6.4025559552 12.6031264119 
H 0.7220039074 5.8128077582 12.0482136339 
O 1.6927703500 4.8173505352 11.0626889870 
H 2.2920716386 5.3681198304 10.5006524935 
O 3.2863019183 6.3619059979 9.5283724074 
H 2.7288998585 6.9214469737 8.9335789899 
H 3.8507723853 5.8049663767 8.9367432487 
H 4.2714954379 7.3765101854 10.4973963162 
H 6.9432847818 5.8150097598 12.0357162155 
H 5.8308278518 6.9438250701 12.0481943088 
O 7.9246362372 4.8135993675 11.0821012449 
O 4.8516345248 7.9466196991 11.0596041395 
H 8.4865556525 5.3702748109 10.4884177729 
O 9.4612061594 6.3739010326 9.4947372860 
H 10.0504671636 5.8164440702 8.9276136140 
H 10.0601429081 6.9325715789 10.0495994146 
H 8.4926175354 7.3754381234 8.5124934380 
O 11.0293740353 7.9307052881 11.0369805832 
H 11.6212424374 7.3708740682 11.5977048358 
H 1.1684166332 8.4952260140 8.4876470647 
O 3.2471108965 9.4991320732 12.5869718976 
H 2.6958174923 12.0621305060 10.0494392183 
H 3.8169787451 12.0696282712 8.9340520219 
O 0.1652416172 9.4592067001 9.4713480272 
H 0.7191221347 10.0527250914 10.0363715752 
O 1.7047916582 11.0578189574 11.0175101507 
H 1.1448374037 11.6178464859 11.6098998554 
H 2.2604433894 10.4968006230 11.6132736758 
H 4.2492502217 8.4981879807 11.6157136409 
H 6.9406945039 12.0769608760 12.0479681397 
H 5.3941558903 10.5141415858 8.5029056055 
O 6.3968531983 9.5462249524 9.5108167093 
H 5.8332803574 8.9576114952 10.0701796539 
H 6.9499228401 8.9446062898 8.9523128431 
O 7.9555126817 11.1100471868 11.0566552616 
H 7.3934869925 10.5164409027 10.4992045107 
O 9.5034506786 9.5274341107 12.6063077956 
H 10.0591308981 8.9332731672 12.0445236984 
H 8.9637962202 12.0760162603 10.0615870838 
H 12.0736669831 10.0566714926 8.9126442766 
H 10.5213401705 11.6323369678 8.4938368468 
H 11.6234533874 8.4853707657 10.4747048339 
H 8.5112368819 10.5141914272 11.6163918997 

