&CONTROL
   calculation      = 'vc-relax'
   tstress          = .true.
   tprnfor          = .true.
   outdir           = './'
   pseudo_dir       = '/home/ppiaggi/QuantumEspresso/pseudos'
/
&SYSTEM
   ecutwfc          = 150
   input_dft        = 'SCAN'
   ntyp             = 2
   nat              = 192
   ibrav            = 0
/
&ELECTRONS
   mixing_beta      = 0.5
   startingpot      = 'atomic'
   startingwfc      = 'atomic+random'
/
&IONS
/
&CELL
/

ATOMIC_SPECIES
O 15.999400004115753 O_ONCV_PBE_sr.upf
H 1.0079400002592869 H_ONCV_PBE_sr.upf

K_POINTS gamma

CELL_PARAMETERS angstrom
12.46014039763903 0.00000000000000 0.00000000000000
0.00000000000000 12.46093910683098 0.00000000000000
0.00000000000000 0.00000000000000 12.46634734497275

ATOMIC_POSITIONS angstrom
O 0.1819083350 0.1549865709 0.1566327519 
O 3.2576459975 3.2629055187 0.1798249808 
H 2.7217275484 0.7013458502 2.7073454706 
O 0.1580576788 3.2514293336 3.2937688034 
H 0.7231395752 2.6956610305 2.7006294111 
O 1.7262665079 1.7072118238 1.7420871609 
H 1.1596423842 1.1490327180 1.1541024058 
H 2.2763738936 2.2708286551 1.1419554936 
H 4.2768923928 1.1254137636 4.2645166064 
H 4.2520165944 4.2633771973 1.1570404289 
H 1.1599543776 4.2609040833 4.2625782892 
H 6.9511382203 0.7051889031 0.6990210890 
O 6.3801567747 3.2716452244 3.2286662821 
H 5.8258756742 2.7023582255 3.8176276802 
H 6.9403205795 3.8247328650 3.8277450763 
O 7.9354658579 1.6785790712 1.6950685190 
H 7.3773190069 2.2710105975 2.2564995036 
H 5.3742093880 4.2613521348 2.2744518059 
H 12.0585683548 3.8088611200 2.6994651017 
O 9.4685346872 3.2629612129 0.1545513204 
H 10.0578568762 3.8292255706 0.7123758607 
H 8.9257316883 0.7015665791 2.7085445423 
H 8.5015935402 2.2719269647 1.1413839436 
H 11.6193193083 2.2617054626 4.2525977229 
H 10.4975180486 1.1444106505 4.2621194341 
H 0.7080239438 6.9553279061 0.7217272157 
O 3.2674275039 6.4208717304 3.2704479264 
H 2.7079595548 5.8267508959 3.8295361761 
H 3.8251468386 5.8268098071 2.7088700698 
O 1.6741482849 7.9512552673 1.7201770881 
H 2.2659446343 7.3855275240 2.2754021838 
H 4.2667508058 7.4014013399 4.2625758300 
O 4.8135117222 4.8554701499 1.7154339776 
O 6.4109101790 6.3898854122 0.1644691362 
H 5.8212476599 5.8250108124 0.7216482610 
O 7.9533416661 7.9764510279 1.7018222432 
H 7.3849688896 7.3861771684 1.1476134200 
O 11.0519851735 4.7927976190 1.7050280585 
H 11.6142185126 5.3871506345 1.1493330254 
H 10.4924062268 5.3839965527 2.2669714142 
O 12.5805443608 6.3915815735 0.1601929615 
O 9.4900387231 6.3709991973 3.2335872764 
H 10.0493537730 6.9293354825 3.8290517871 
H 8.9295086492 5.8123300191 3.8259179719 
H 8.5075148922 7.3800380069 2.2634568826 
O 3.3089245350 12.5992114052 3.2699472930 
H 2.7074636128 12.0450282371 3.8269169481 
O 3.2694850240 9.4821763612 0.1763145133 
H 0.7038919244 8.9413278627 2.7123627582 
H 2.2701763311 8.4994594699 1.1518111788 
H 1.1324410450 10.5099827154 4.2657258817 
H 4.2648653864 11.6051744256 2.2703664948 
H 4.2674687934 10.4848905200 1.1502024464 
H 5.8350229083 12.0458227810 0.7030178023 
O 4.8586031080 11.0471722772 1.7085599028 
O 6.3941135404 9.5095289327 3.2940624825 
H 5.8287279910 10.0625933293 2.6986078241 
H 6.9520912942 8.9474613804 2.7020035266 
H 7.3778915794 10.5031073969 4.2705686345 
H 5.3858945423 8.5179759633 4.2639234059 
O 9.5159872307 12.6029261033 3.2702849223 
O 12.5939718570 9.5339575955 3.2624149024 
H 12.0406364176 12.0613464479 0.7132705613 
H 8.9222319492 12.0478268542 3.8350566698 
H 12.0401360979 8.9405412001 3.8268713147 
H 8.9426298519 8.9495550561 0.7071765967 
H 10.0585174118 10.0721363065 0.7026117085 
O 11.0492875159 11.0644515257 1.6720548655 
H 11.6024144082 10.4981483026 2.2656871945 
H 10.4812361861 11.6148265828 2.2663588504 
O 0.1906716764 0.1629258369 6.3861206279 
O 3.2483772407 3.2714449282 6.3687898649 
H 3.8360584649 2.7054115858 5.8105464025 
H 3.8467534315 3.8230535889 6.9329754854 
O 1.7108266776 1.7266459652 7.9653056211 
H 1.1517880427 1.1659841564 7.3714345975 
H 2.2729737798 2.2843456087 7.3727640858 
H 2.2811997576 4.2691705846 5.3777360291 
O 4.8381419626 1.7261035897 4.8152077704 
H 5.3926174154 1.1439126914 5.3901057740 
H 6.9377413303 0.7158221521 6.9701554980 
O 7.9068546649 1.7205542207 7.9549612914 
H 8.5041202334 2.2731631193 7.3911746065 
O 11.0603827062 1.7051252242 4.8502387142 
H 8.4928555743 4.2560045814 5.3945985123 
H 12.0581414237 0.7165412385 5.8191859278 
O 9.4694577634 3.2546027538 6.3958048772 
H 10.0653166114 2.7020199890 5.8326134720 
H 10.0598310782 3.8230920076 6.9506101090 
O 1.7116346634 4.8589047258 4.8239201496 
H 0.7149627561 6.9431209088 6.9429306818 
H 0.7208360651 5.8240664966 5.8224084344 
O 1.7149799157 7.9106966300 7.9406300682 
O 7.9318949002 4.8109820654 4.7987365623 
H 7.3782959536 5.3794788309 5.3898114748 
O 4.8222699436 7.9632336667 4.8576193303 
O 4.7917000498 4.8115056767 7.9311288182 
H 5.3807347840 5.3783761009 7.3749149550 
O 6.3819662787 6.3571276020 6.3796497346 
H 5.8263879782 6.9577819390 5.8252988743 
H 6.9476499434 6.9413036732 6.9440624446 
O 7.9413081821 7.9285400379 7.9075696290 
O 11.0455856965 7.9272167986 4.7890094655 
H 11.6081890075 7.3702362147 5.3818191129 
O 11.0478877272 4.8001527078 7.9370918740 
H 11.6145454994 5.3869354353 7.3778820213 
O 12.5855109624 6.3813928824 6.3822169361 
H 2.2751312618 8.5043091731 7.3822025658 
O 1.7284735985 11.0694786249 4.8222738767 
H 1.1383300638 11.6306842810 5.3854362471 
O 3.2670362374 9.5098733487 6.4130984100 
H 2.7007496688 10.0674299311 5.8254398027 
H 3.8240403768 8.9524685820 5.8141973927 
H 4.2505729237 10.4979498699 7.3892925713 
O 6.3831181016 12.6121489936 6.3766152265 
O 7.9714723164 11.0574738895 4.8359839941 
H 7.3789599664 11.6146191681 5.3984372402 
H 5.8221170800 12.0523837365 6.9675773901 
O 4.8432820285 11.0485223798 7.9590326999 
H 10.4866888924 8.4867931539 5.3838785074 
H 12.0566337161 12.0566448123 6.9373740219 
O 9.5268253123 9.4886211421 6.3725810713 
H 8.9290303342 10.0513416487 5.8202418641 
H 8.9380839621 8.9293495490 6.9372531064 
O 11.0636040465 11.0798426591 7.9220407798 
H 10.4975885073 10.4890131552 7.3663209674 
H 3.8216214629 2.7098775181 12.0516873362 
H 2.6975662702 3.8253786106 12.0541184931 
H 3.8155108626 0.7211989263 10.0601470132 
H 2.6938430286 0.7217081911 8.9442895047 
O 0.1565244309 3.2669745931 9.5282603516 
H 0.7194314912 2.7147045574 8.9291548847 
H 1.1477730920 4.2619417194 10.5080208078 
H 5.3905948754 4.2598110498 8.4943232194 
O 4.7996185738 1.7158530221 11.0439383265 
H 5.3943714799 1.1566763407 11.6007551576 
H 5.3893126633 2.2818880764 10.4862996838 
O 6.3524171559 3.2792771377 9.4939735339 
H 6.9493110431 2.7154129983 8.9400044754 
H 6.9425237535 3.8362130966 10.0587414515 
H 8.4988722378 1.1552053932 8.5102307287 
H 12.0587181779 0.7213448677 12.0603757361 
H 10.0653964437 2.7135863547 12.0550943249 
H 12.0551496131 3.8267955810 8.9374253641 
O 9.5060030725 0.1778151881 9.4895760239 
O 11.0620443696 1.7219775400 11.0849828075 
H 11.6258529613 2.2757823632 10.4893675502 
H 10.5085717432 1.1560568464 10.4936062285 
H 8.5019542109 4.2684027493 11.6291046970 
H 0.7169778295 5.8333148067 12.0693558605 
O 1.7062088917 4.8221570919 11.1015986571 
H 2.2660022013 5.3777455054 10.5038266399 
O 3.2558721769 6.3609220170 9.5246070358 
H 3.8157870041 5.8030522183 8.9297654240 
H 2.7023913113 6.9285979119 8.9327678443 
H 4.2563558534 7.3630050724 10.4872185981 
H 5.8151027794 6.9359054088 12.0612624182 
O 7.9439383322 4.8331760756 11.0386373480 
H 7.3884329851 5.3926972171 11.6358362915 
O 4.8189731586 7.9206760689 11.0794250028 
H 8.5013927285 7.3736753874 8.5062046836 
H 10.4923919984 5.3968067638 8.4971518329 
O 9.4944352953 6.3881154448 9.4656209935 
H 8.9372798143 5.8302355036 10.0625666262 
H 10.0514481426 6.9507280663 10.0592723431 
O 11.0436446370 7.9463561234 11.0271653919 
H 11.6013114632 7.3886697597 11.6238562487 
H 1.1531965130 8.5024067266 8.5000562394 
H 2.7129851817 10.0477724347 12.0518291056 
H 3.8252861144 8.9211463247 12.0474952385 
O 3.2459560467 12.5890123346 9.5105718852 
H 0.7084169749 10.0499662675 10.0597004501 
O 1.7110179496 11.0213100974 11.0647681683 
H 2.2645766840 11.6208308652 10.5047163819 
H 1.1493008992 11.6096950661 11.6266640546 
H 4.2508271181 11.6102063867 8.5161118084 
H 7.3801897599 8.4936254013 8.4947307747 
O 6.3940564956 12.6018278687 12.5731907694 
H 5.3753368353 8.4812014726 10.4844820861 
O 6.3850900651 9.4582425110 9.4898783306 
H 6.9457052928 10.0520569677 10.0483607359 
H 5.8176046880 10.0510769941 8.9373199405 
O 7.9441634761 11.0517766470 11.0074547577 
H 7.3858273129 11.6119124076 11.6019461008 
O 12.6105283950 9.4894525332 9.4664901002 
O 9.4979339308 9.5109734723 12.5766843604 
H 10.0660114268 12.0523377058 8.9239742790 
H 8.9476089869 12.0389525317 10.0446660616 
H 12.0461880401 8.9362777285 10.0613172683 
H 11.6132278526 10.4844771988 8.4889384261 
H 10.4861570273 8.5108326821 11.6195084978 
H 8.5053219577 10.4947415660 11.6020004630 

