&CONTROL
   calculation      = 'vc-relax'
   tstress          = .true.
   tprnfor          = .true.
   outdir           = './'
   pseudo_dir       = '/global/homes/p/ppiaggi/QuantumEspresso/pseudos'
/
&SYSTEM
   ecutwfc          = 150
   input_dft        = 'SCAN'
   ntyp             = 2
   nat              = 384
   ibrav            = 0
/
&ELECTRONS
   mixing_beta      = 0.5
   startingpot      = 'atomic'
   startingwfc      = 'atomic+random'
/
&IONS
/
&CELL
/

ATOMIC_SPECIES
O 15.999400004115753 O_ONCV_PBE_sr.upf
H 1.0079400002592869 H_ONCV_PBE_sr.upf

K_POINTS gamma

CELL_PARAMETERS angstrom
15.25545489030318 0.00000000000000 0.00000000000000
0.00000000000000 14.38160949934495 0.00000000000000
0.00000000000000 0.00000000000000 17.61773629596593

ATOMIC_POSITIONS angstrom
O 1.5329931979 1.8863624356 3.5075102342 
H 0.5890910370 1.5884867840 3.5100801136 
H 1.5094233484 2.8748891457 3.5086031374 
H 4.3865897429 1.5828568933 1.3065211394 
O 1.5193365335 4.5885471032 3.4812698891 
H 0.5903393848 4.9246881643 3.5079553880 
H 1.9617125765 4.9311372712 4.2973916296 
O 2.7769024789 1.0196710270 1.2873623058 
H 2.3077988438 1.3263488249 2.1035171983 
O 5.2857749901 4.5760465502 1.2898991544 
H 5.7737569428 4.9181091305 0.4999326274 
H 5.7685104873 4.9159883340 2.0826384736 
O 5.3290938530 1.8841436683 1.3028840696 
H 5.3045521024 2.8739748102 1.2995150072 
O 6.6018280784 0.9909260069 3.4992144811 
H 6.1225819922 1.3369520808 4.2912007153 
H 6.1145066557 1.3319279767 2.7085859944 
O 9.1499090212 1.8758263024 3.4833187903 
H 8.2071030731 1.5758991790 3.4883329861 
H 9.1225632408 2.8652975988 3.4816709570 
O 9.1382910048 4.5722158175 3.4596330868 
H 8.2090163290 4.9117788912 3.4872834404 
H 9.5778276019 4.9106914439 4.2778737733 
H 9.9197629833 1.3305070708 2.0838459276 
H 9.9262840411 1.3305225563 0.4997677154 
O 12.9258765490 4.5997251118 1.3222174135 
H 12.9363105467 3.6104147288 1.3008684715 
H 13.3886533676 4.9001724257 0.5012712215 
O 12.9431399677 1.9030673499 1.3308695758 
H 12.0122161558 1.5701045473 1.3021668702 
H 13.3828939201 1.5701908855 0.5093843665 
O 10.4071385895 0.9880812584 1.2923049942 
O 14.2468401818 1.0028098060 3.5117413089 
H 13.7564576116 1.3413334128 4.3007061902 
H 13.7553666323 1.3311054967 2.7190135936 
O 2.7446471182 5.4994505733 1.2546220384 
H 3.6746692484 5.1653017958 1.2795647308 
H 2.3097861894 5.1661721361 2.0775117706 
O 1.4978726810 9.1086317906 3.5260130824 
H 0.5697163561 8.7668923244 3.5032343425 
H 1.9380903292 8.7664538908 2.7086935685 
H 4.3710339496 8.7710931849 1.3053731361 
O 2.7555965518 8.2088838927 1.3234163857 
H 2.7452145637 7.2210627830 1.2886615353 
H 2.2905800503 8.5190573053 0.5064184949 
O 6.6042570257 5.4736437269 3.4736452546 
H 6.1333312721 5.1720152248 4.2902533389 
H 6.5879346999 6.4625754272 3.4968726575 
H 9.9417873869 5.1643407366 2.0823128442 
O 5.3140691438 9.0690476125 1.3078342642 
O 6.5600100960 8.1726234070 3.5268117174 
H 7.4845652416 8.5227862114 3.4944327778 
H 6.1066073430 8.5095057943 2.7153221649 
O 9.0882539394 9.0809146924 3.5085707569 
H 9.5655735523 8.7705596477 2.7002738842 
O 10.3684700112 8.2028860126 1.2890808085 
H 10.4000629673 7.2136947301 1.2944070570 
O 14.2264161456 5.5141462104 3.4989280199 
H 13.7437491822 5.1716042937 4.2919533603 
H 13.7457637179 5.1640506898 2.7090389046 
O 10.3871231767 5.5099984241 1.2690803164 
H 11.3138390856 5.1657427492 1.2925517251 
O 12.9293068919 9.0763745860 1.2647618839 
H 13.3933657061 8.7681086690 2.0817796963 
H 11.3080906934 8.5103503140 1.2909072576 
O 14.2162257179 8.2060074481 3.4817425586 
H 14.2012086421 7.2162800736 3.5001856243 
H 13.7405176414 8.5054665795 4.2954471584 
H 2.7637398814 14.4135163831 1.3142369813 
O 1.4887339685 11.8020234408 3.5445262114 
H 1.4974922851 10.8124554211 3.5181047316 
H 1.9602586306 12.1034327672 2.7280571079 
O 2.7527816754 12.6913148899 1.3435212858 
H 3.6818270727 12.3534247110 1.3175647453 
H 2.3113931545 12.3547399609 0.5254950254 
O 5.2840923160 11.7635549170 1.3134345046 
H 5.7652410889 12.1032608820 0.5183178810 
H 5.7749067146 12.1040630892 2.1019537646 
O 6.5628003683 12.6614099555 3.5037614702 
H 6.5854576552 13.6497780227 3.5001579614 
H 7.5059992335 12.3625151851 3.5017366084 
H 5.2947217736 10.0585826148 1.3081610397 
H 9.1174479714 10.0696935293 3.4852585983 
O 9.1074709098 11.7757976762 3.5005815837 
H 9.5904619818 12.1144393614 4.2943155038 
H 9.5949373440 12.1207910098 2.7117107259 
H 9.9461033081 12.3744055638 0.5146977328 
O 12.9497847572 11.7696256559 1.2928273390 
H 12.0249725194 12.1215364392 1.3155149657 
H 13.3956942773 12.1135081426 2.1052837440 
O 14.1926949698 12.6776769991 3.5191229949 
H 15.1335433148 12.3725698855 3.5188228310 
H 14.2208152607 13.6660360999 3.5164545008 
H 12.9412124224 10.0654721877 1.2994034397 
O 10.4206170664 12.6837209982 1.3251175907 
H 10.3964481442 13.6734723001 1.3006060961 
H 4.4039267778 4.9298190080 5.6994680439 
O 2.7859959606 1.0066302104 5.7373348705 
H 2.3183654160 1.3100709902 4.9208456444 
H 4.3966285490 1.5855938788 5.7153852031 
O 1.5097333510 4.6074615923 7.8885251932 
H 0.5664515049 4.9059925857 7.8891224656 
H 1.4874786935 3.6185926032 7.8938242914 
O 1.4614972308 1.9069556083 7.9051884775 
H 1.9524565509 1.5620855707 7.1190035218 
H 1.9438456471 1.5746907245 8.7019820356 
O 5.3439163315 4.6228132385 5.6949492176 
H 5.3127967288 3.6334882769 5.7060015532 
O 5.3213750396 1.9350884653 5.6938802509 
H 5.7661469051 1.5911313251 6.5067363513 
O 6.5650163646 1.0296968383 7.9149971627 
H 7.5068744412 1.3304134741 7.9130505822 
H 9.9360102857 1.3125191978 4.8972905529 
O 9.1184828595 4.6125419945 7.8770806744 
H 9.1370242694 3.6228195877 7.8989259567 
H 9.5929337276 4.9163725455 8.6897171932 
O 9.1134854321 1.9240043655 7.9011190708 
H 9.5934755364 1.5777017634 7.1084481175 
H 9.5973849984 1.5785616865 8.6916723252 
O 12.9132540458 4.6161991280 5.6697022082 
H 13.3815027044 4.9164298269 6.4890793318 
H 12.9222927875 3.6264152601 5.6971427363 
O 10.4062404955 1.0161457237 5.7148990511 
O 12.9383345073 1.9276739829 5.6822227717 
H 12.0112304679 1.5830891612 5.7030313117 
H 13.3797045973 1.5886429796 6.4998737616 
O 14.1820747336 0.9925051820 7.8822469351 
H 15.1123203277 1.3267189094 7.9067125411 
H 13.7419732580 1.3339057592 8.7005732154 
O 2.7865820905 5.4850949369 5.6798229609 
H 2.3069707004 5.1740629654 6.4874449448 
H 2.7618641536 6.4739123205 5.7073509536 
O 2.7795550715 8.1807662970 5.7089025749 
H 2.2918089151 8.5196085445 6.4988053848 
H 2.2958508884 8.5211537359 4.9159551162 
H 4.3895905763 8.7591423677 5.7070907971 
O 1.4601765850 9.0774413138 7.8974006261 
H 1.9355275872 8.7763643996 8.7107721331 
O 6.5806787671 5.5202819118 7.9188173614 
H 6.1348118178 5.1817244929 7.1029654664 
H 7.5061746966 5.1719989675 7.8938740918 
H 9.9350661368 5.1708823269 6.4888332862 
O 5.3198563198 9.0930995552 5.7374390056 
H 5.7632446133 8.7565731247 4.9195121052 
O 6.5825080721 8.2136931017 7.9417696346 
H 6.1157786388 8.5114428056 7.1211791439 
H 6.5840445150 7.2242215251 7.9135310072 
H 9.9085472725 8.5143100642 4.9130647129 
O 9.1199114053 9.1148864885 7.9362502875 
H 9.5529234807 8.7717300086 7.1160378887 
H 8.1885295318 8.7805019964 7.9177849560 
O 10.3749149632 5.5134470812 5.6715767941 
H 11.3042766712 5.1753681319 5.6951942838 
O 14.2093814231 5.4615580108 7.8702140947 
H 14.1988434025 6.4510585429 7.8994596212 
H 13.7424658218 5.1564665128 8.6875858893 
O 10.3752691556 8.2123046675 5.7304859669 
H 10.3695567848 7.2229700892 5.7009549722 
O 12.9418572821 9.0946232135 5.6851018779 
H 12.0121659890 8.7618082425 5.7095586181 
H 13.3841516070 8.7465644795 6.4982605569 
O 14.1881440451 8.1508737768 7.8861151795 
H 13.7398009596 8.4891055783 8.6991727657 
H 15.1127493044 8.5015905764 7.9162388712 
H 2.7742970656 14.3988688582 5.7131993730 
O 2.7553149282 12.6945173957 5.7380503223 
H 2.3101683289 12.3537015501 4.9217291037 
H 3.6822000132 12.3504830841 5.7126620856 
O 1.4901080090 11.7872189821 7.9421503597 
H 1.9377067569 12.1219219686 7.1260253543 
H 0.5625294779 12.1293466717 7.9126384182 
H 1.4714231934 10.0656115860 7.9215041540 
H 6.5897945768 14.4222469775 7.9211394353 
O 5.2958648380 11.7934742646 5.7379999397 
H 5.3088975379 10.8044285899 5.7167520752 
H 5.7647743228 12.0934929757 4.9212559669 
O 6.6088767413 12.7076594526 7.9253174252 
H 6.1259061536 12.3620733440 7.1357449835 
H 6.1241977961 12.3649542303 8.7164933898 
H 9.9442251993 12.3628140687 6.5063624764 
O 9.1558357674 11.8072916868 7.9189745574 
H 9.1238920361 10.8178118173 7.9170425598 
H 8.2151951649 12.1124834370 7.9221125094 
H 10.3953945138 14.4084299313 5.7018906445 
O 12.9220878453 11.7993396252 5.7269693574 
H 12.9368212266 10.8111737992 5.7027112789 
H 13.3979577774 12.1066211528 4.9158123463 
O 10.3859143065 12.7042506923 5.6903518826 
H 11.3132888506 12.3608460872 5.7108799026 
O 14.2033186465 12.6776480722 7.9319001140 
H 13.7367275640 12.3711546074 7.1153890309 
H 14.1899093228 13.6669424758 7.9060402213 
O 1.4837446776 1.8925826774 12.2927285553 
H 1.4981574778 2.8811346319 12.3130552919 
H 1.9539949329 1.5892715607 13.1079979227 
O 1.5080266528 4.5961863707 12.3277389555 
H 0.5781640587 4.9308834297 12.3017823159 
H 1.9495369608 4.9350949333 11.5110084494 
O 2.7450494442 0.9961618004 10.0924585788 
H 2.3058660196 1.3388825301 10.9101823603 
H 3.6719537992 1.3384219763 10.1093748714 
O 5.2814816935 1.9363773721 10.0980509577 
O 5.2860241094 4.6276344584 10.1142443226 
H 5.3017485563 3.6377463125 10.0886894862 
H 5.7637876670 4.9309823489 9.3030022963 
H 5.7723368213 1.5919022164 9.3106789053 
H 5.7604232176 1.5960256730 10.8937488332 
O 6.5734518595 1.0302879042 12.2854004381 
H 6.1110303919 1.3328719294 13.1061930501 
O 9.1406546263 1.8866638668 12.2936965016 
H 8.1993593113 1.5838592795 12.3003027584 
H 9.1135619655 2.8760333516 12.3000915543 
O 9.1334264234 4.5773252617 12.2771706397 
H 9.5731768598 4.9257113922 13.0923194676 
H 8.2057646662 4.9186718983 12.2971566752 
H 9.9352801641 1.3257619750 10.8956372205 
O 12.9496016541 4.5781385799 10.0805603106 
H 12.0215341301 4.9220230312 10.1050141378 
H 13.3927637295 4.9217361233 10.8958333606 
O 12.9688561438 1.8886039139 10.1031778901 
H 12.0275888049 1.5851565626 10.1088588982 
H 12.9415094430 2.8782330837 10.1055746541 
O 10.4141250947 1.0188033839 10.0861775596 
O 14.2083468388 0.9681265387 12.3239625052 
H 13.7633415274 1.3140987097 11.5120559895 
H 15.1326944001 1.3194174706 12.3042858500 
O 2.7538347695 5.5174274671 10.1155562511 
H 3.6831158249 5.1770035741 10.0876528004 
H 2.3092540015 5.1755985448 9.3018776457 
O 1.4998312472 9.0947131853 12.3332681331 
H 0.5726608370 8.7525907698 12.3051451997 
H 1.9469009348 8.7544166230 11.5178356617 
O 5.2692351909 9.1116883241 10.1227557189 
O 2.7318309436 8.2098347410 10.1176390564 
H 2.7627546257 7.2205239874 10.1084282358 
H 3.6728614042 8.5161899781 10.1200274333 
O 6.5956656245 5.5109320001 12.3036359285 
H 6.1079608555 5.1768796037 11.5116262830 
H 6.1137392333 5.1686725877 13.0954439346 
H 9.9428213333 5.1714471072 10.8975729145 
H 5.7565754332 8.7688060265 10.9130866343 
H 5.7511893914 8.7682607380 9.3306566162 
O 6.5466406312 8.2119194733 12.3086359310 
H 6.5704891617 7.2231213419 12.3079462690 
H 7.4893345100 8.5129819255 12.3106916066 
O 9.0939160511 9.0745035379 12.2919909174 
H 9.5733614082 8.7744329698 13.1047165572 
H 9.9192047989 8.5220049684 9.3198516167 
H 9.9231169427 8.5160715793 10.9022508949 
O 14.2110864017 5.4774057633 12.2807362719 
H 13.7377402838 5.1730442629 13.0936294865 
H 14.1931868039 6.4676486014 12.3049975888 
O 10.4178184212 5.4782196107 10.0854559952 
H 10.4002324642 6.4670889378 10.1123654976 
O 12.9471743681 9.0592638773 10.1150257986 
H 12.0016797644 8.7666508473 10.1129123807 
O 10.4075190047 8.1781730147 10.1087886485 
O 14.2180059206 8.1624572480 12.3049418390 
H 13.7348045975 8.5024251092 13.0979323108 
H 13.7294604419 8.5031102886 11.5142139989 
H 4.3860159559 12.1087156319 10.1135688335 
O 1.4992127147 11.7908251847 12.3539330532 
H 1.9598089184 12.0985218040 11.5343283273 
H 1.5077407516 10.8018258990 12.3227048151 
O 2.7674457184 12.6708928534 10.1371955809 
H 2.7528480855 13.6592284842 10.1169928795 
H 2.2916152135 12.3706452020 9.3228980153 
H 6.5620934531 14.4230710592 12.3099490388 
O 5.3275761839 11.8071366334 10.1179199777 
H 5.3010164357 10.8176757729 10.1194584223 
O 6.5523953831 12.7118299091 12.3423409550 
H 7.4791548099 12.3681468809 12.3186940024 
H 6.1078942195 12.3670860344 11.5285917160 
H 9.1071941377 10.0635288693 12.3123405166 
O 9.0812329489 11.7737555680 12.3151282156 
H 9.5744206745 12.1083057758 11.5258897897 
H 9.5734919981 12.1018928164 13.1074654609 
H 9.9459371210 12.3578996882 9.3252324088 
H 10.3970829717 14.4119083678 10.1124492664 
O 12.9217199998 11.7630735677 10.1282296073 
H 13.3991312423 12.1090778565 9.3349451338 
H 13.4061953840 12.1051415391 10.9194473678 
O 14.1880717540 12.6618360096 12.3311243092 
H 15.1280899395 12.3560076799 12.3302613686 
H 14.2205875474 13.6517545523 12.3183894988 
H 12.9325136725 10.0483475926 10.1192780207 
O 10.3850084191 12.6990517536 10.1434532039 
H 11.3121110310 12.3575525844 10.1248980993 
H 4.3894671453 4.9184096300 14.5213139340 
O 2.7330194508 1.0158367576 14.5193704053 
H 3.6739243725 1.3200037325 14.5208558813 
O 1.4634557383 4.6063822422 16.6817438759 
H 1.9380299106 4.9065767491 17.4966140817 
H 1.4804477587 3.6172363107 16.7012093033 
O 1.4612664488 1.9105011404 16.7086936058 
H 1.9475826406 1.5763473918 17.5014009301 
H 1.9501313270 1.5666216828 15.9193757932 
O 5.2962605458 1.8806019726 14.4951798045 
O 5.3159059285 4.5745005586 14.4940802879 
H 5.7608021480 4.9160615191 15.3086140248 
H 5.7622052791 1.5723549842 15.3115146822 
H 5.3092321236 2.8698871748 14.5256064402 
O 6.5624362347 0.9795322970 16.7018684252 
H 6.1168933590 1.3262411528 17.5141726076 
H 7.4854925101 1.3327210665 16.7177541496 
H 9.9361668632 1.3156073026 13.7046518627 
O 9.0930362256 4.5988007664 16.6970616767 
H 9.5851664075 4.9328296611 17.4875160869 
H 9.5775522681 4.9392093715 15.9040092150 
O 9.1011937445 1.8992656132 16.7225831311 
H 9.5739794681 1.5923589805 15.9107856137 
H 9.1154390840 2.8881410877 16.6967068336 
O 12.9048220067 4.6116784521 14.4893952371 
H 12.9229115955 3.6239000681 14.5150012999 
H 13.3778647640 4.9189381510 15.3031144150 
O 10.4053930976 1.0127209329 14.5204388156 
O 12.9422152763 1.9037339151 14.5324232450 
H 12.0143380246 1.5618457929 14.5000681273 
H 13.3916771082 1.5637996661 13.7210308469 
O 14.1810910518 0.9908486602 16.7407801755 
H 13.7359777134 1.3217957597 15.9217835275 
H 15.1105108631 1.3258699728 16.7095622968 
O 2.7860406632 5.5219852815 14.5185198921 
H 2.2931070660 5.1783550682 15.3044524092 
H 2.3038782020 5.1874685204 13.7228341896 
O 2.7808952858 8.2182131577 14.5317123139 
H 2.7671867744 7.2286788924 14.5125606038 
H 2.3055279370 8.5159712051 13.7160430089 
H 4.3812223240 8.7745643100 14.5109515690 
O 1.4806943290 9.0811621828 16.7381757792 
H 1.9511859894 8.7820183228 15.9219066051 
O 6.5538330140 5.4792161026 16.7181509008 
H 6.5729155907 6.4678678502 16.7214282944 
H 7.4985145704 5.1847639738 16.7116614372 
O 10.3558923862 5.4913425645 14.4935137390 
O 5.3092016635 9.1185372109 14.5383638318 
H 5.7534846448 8.7767068616 13.7241196630 
O 6.5941866375 8.1856795407 16.7268116236 
H 6.1067087327 8.5194716082 17.5199170363 
H 6.1072193019 8.5261040865 15.9369060645 
H 9.9327157569 8.5220511027 15.2966216750 
O 9.1306543998 9.1047647923 16.6929778149 
H 8.2008507162 8.7695269251 16.7216358186 
H 9.5762949181 8.7589706044 17.5055409169 
O 10.3749175494 8.1861160643 14.4782805351 
H 11.2965477583 5.1846265851 14.5045291800 
H 10.3861227231 6.4807020634 14.4963032268 
O 14.1643765208 5.4724351057 16.7031986881 
H 15.1047007248 5.1650687220 16.7036173981 
H 14.1954859782 6.4614071892 16.7077963488 
H 11.3057902633 8.5229300150 14.5077941600 
O 12.9109046645 9.0627077743 14.4898133421 
H 13.3803341251 8.7584788587 15.3061538722 
O 14.1831486866 8.1645130230 16.6882732902 
H 13.7442937913 8.5145341418 17.5035956069 
H 15.1092157407 8.5087090979 16.7082343517 
H 2.7629216875 14.4074893715 14.5218901337 
O 2.7514720361 12.7083499204 14.5470849023 
H 3.6811710332 12.3700940520 14.5289540625 
H 2.3154231715 12.3587352733 13.7303675362 
O 1.5061085659 11.7738584053 16.7466915857 
H 0.5778530865 12.1130270873 16.7237771344 
H 1.9485600610 12.1167263123 15.9307568737 
H 1.4896222345 10.0705002092 16.7180655088 
O 5.2893172972 11.8116632670 14.5508296120 
H 5.7537418039 12.1179134406 13.7325890681 
H 5.2977655889 10.8222258064 14.5175609201 
O 6.5872266856 12.6609445241 16.7516748976 
H 6.1170535839 12.3599126299 15.9350421013 
H 6.5767029744 13.6493641890 16.7302038069 
H 9.9445712365 12.3506621943 15.3123671904 
O 9.1549697492 11.7997008422 16.7271411364 
H 9.1246114882 10.8106428531 16.7246179822 
H 8.2136563374 12.1022951956 16.7279596891 
H 10.3878894992 14.4056869682 14.4998803255 
O 12.9184793726 11.7562690278 14.5142351244 
H 13.3944998079 12.0948180660 15.3114198808 
H 13.4087360317 12.1057276660 13.7282612479 
O 10.3827535948 12.6896825989 14.4935281270 
H 11.3103227284 12.3487491299 14.5130714699 
H 12.9322600752 10.0523950221 14.5110260279 
O 14.2125858175 12.6635490687 16.7113576260 
H 13.7422487106 12.3628451644 17.5285077505 
H 14.1943466881 13.6519117118 16.7286163164 

