&CONTROL
   calculation      = 'vc-relax'
   tstress          = .true.
   tprnfor          = .true.
   outdir           = './'
   pseudo_dir       = '/global/homes/p/ppiaggi/QuantumEspresso/pseudos'
/
&SYSTEM
   ecutwfc          = 150
   input_dft        = 'SCAN'
   ntyp             = 2
   nat              = 384
   ibrav            = 0
/
&ELECTRONS
   mixing_beta      = 0.5
   startingpot      = 'atomic'
   startingwfc      = 'atomic+random'
/
&IONS
/
&CELL
/

ATOMIC_SPECIES
O 15.999400004115753 O_ONCV_PBE_sr.upf
H 1.0079400002592869 H_ONCV_PBE_sr.upf

K_POINTS gamma

CELL_PARAMETERS angstrom
15.24842133977224 0.00000000000000 0.00000000000000
0.00000000000000 14.37796148094341 0.00000000000000
0.00000000000000 0.00000000000000 17.61452700961644

ATOMIC_POSITIONS angstrom
O 1.4941362240 1.9194294184 3.4982122070 
H 1.9401937787 1.5820206454 4.3138834538 
H 0.5668604896 1.5764746897 3.5215870209 
H 4.3876438558 4.9169605695 1.3067787440 
O 1.5163298645 4.6103243587 3.4864898152 
H 1.4822172810 3.6207889668 3.5023688032 
H 0.5762867487 4.9192683345 3.4880416113 
O 2.7395701342 1.0107459032 1.2813813014 
H 3.6718768580 1.3405753238 1.3168476041 
H 2.2962940227 1.3423226926 2.1005421423 
O 5.2786220475 1.9124560490 1.3254957900 
O 5.3316699544 4.6176937493 1.3088411694 
H 5.3083001710 3.6289684633 1.3129855054 
H 5.7630184112 1.5668851146 0.5346212450 
H 5.7623027928 1.5690171662 2.1169738713 
O 6.5620479848 1.0038179661 3.5142513305 
H 7.5009696653 1.3171233506 3.5068825937 
O 9.1029623022 1.8893552483 3.5281602021 
H 9.5728167458 1.5818785919 2.7138216719 
H 9.1186294083 2.8784977151 3.5026391097 
O 9.1380814220 4.5831979955 3.5238093181 
H 8.2115807283 4.9312351868 3.4912977816 
H 9.5853327647 4.9161325206 2.7081619209 
O 10.3585947215 1.0127433956 1.3031143427 
O 12.9137008885 4.5726526690 1.2838161699 
H 13.3960210170 4.9256844977 2.0720047275 
H 13.3951727030 4.9098199879 0.4890097621 
O 12.9079233337 1.8812016667 1.3272986796 
H 13.3783122511 1.5730900244 0.5134153674 
H 12.9269113248 2.8703404404 1.2988474024 
H 11.2983965154 1.3237979764 1.3018730553 
O 14.2135526235 0.9875572528 3.5087557973 
H 13.7262557546 1.3265285041 2.7171592198 
H 13.7304993095 1.3310137651 4.2998556989 
O 2.7962907882 5.4999076248 1.3017397024 
H 2.3134155805 5.1649225226 0.5061761119 
H 2.3042307406 5.1562166440 2.0887688581 
O 1.4677000524 9.1196631549 3.5198431314 
H 1.9541795648 8.7789814435 4.3103678295 
H 1.9471487221 8.7702027804 2.7296107581 
H 4.3886335619 8.7644099178 1.3203976557 
O 2.7753681676 8.1963304828 1.3361092692 
H 2.3124593315 8.4973462022 0.5165100416 
H 2.7679899407 7.2072590329 1.3112479029 
O 6.6158893776 5.4911693652 3.5160416055 
H 6.5912452882 6.4808047895 3.4976706736 
H 6.1329842565 5.1870715753 2.7078081463 
H 9.9321677794 5.1676372068 0.4905788325 
O 5.3269370956 9.0777150154 1.3255626317 
O 6.6027149049 8.1819259810 3.5056387889 
H 6.1154439422 8.5276344172 2.7159007574 
H 6.1224344220 8.5230040420 4.3000017976 
O 9.1498552719 9.0791457444 3.5325625470 
H 8.2164278961 8.7531150668 3.5030446256 
H 9.5882504582 8.7392882105 2.7126188540 
H 9.9375416933 8.5064084266 0.5143190237 
O 14.2080273928 5.4886299399 3.4603735329 
H 13.7449447118 5.1789839111 4.2788850235 
H 14.2000615405 6.4772447173 3.4968906125 
O 10.3829308819 5.5055060187 1.3039591815 
H 11.3097727789 5.1625280432 1.2735319939 
O 12.9517797523 9.1006772829 1.2904629441 
H 12.0245812938 8.7590719479 1.3158321776 
H 13.3942485904 8.7654611889 2.1095893323 
O 10.4060154680 8.1963433905 1.3287656404 
H 10.3902103684 7.2068132486 1.2963402489 
O 14.1873335929 8.1851287153 3.4983758406 
H 13.7392699445 8.5197107900 4.3136777421 
H 15.1152940871 8.5259951801 3.5292195305 
H 4.3809926760 12.1146545717 1.3011350926 
O 1.5268244513 11.8166219665 3.4951271187 
H 1.4970768772 10.8276755959 3.5037726087 
H 0.5852048899 12.1206828298 3.5038644755 
O 2.7628841398 12.6845181776 1.2580474413 
H 2.2955473160 12.3803774785 2.0755138479 
H 2.7465236122 13.6729970154 1.2832723176 
H 6.5985799474 14.3938524892 3.5055543586 
O 5.3061177364 11.7676346944 1.3285059073 
H 5.7511929968 12.1015127731 0.5108531905 
O 6.6346703887 12.6713904652 3.5017259203 
H 6.1443064288 12.3431260337 4.2956913623 
H 6.1368426211 12.3404102966 2.7142878721 
H 5.2897288221 10.0671244641 1.3195434347 
O 9.1720028184 11.7807893990 3.5146851770 
H 8.2272516862 12.0762365246 3.5101136150 
H 9.1518290114 10.7916950593 3.5173746806 
H 9.9597157555 12.3519643327 2.1030797783 
H 10.3952801216 14.4015528132 1.3060932012 
O 12.9387881551 11.7932014520 1.2763340794 
H 12.9461308410 10.8038604983 1.3086105363 
H 13.4039704583 12.1007044766 2.0930102633 
O 14.2227583109 12.6730746633 3.4889189473 
H 13.7458448050 12.3642506018 4.2995587817 
H 14.1974884146 13.6618781171 3.5121235707 
O 10.3948953609 12.6996211600 1.2861915490 
H 11.3226949141 12.3584432404 1.3017742589 
H 4.4212737548 4.9255086727 5.6836765776 
O 2.7425424912 1.0241458750 5.7151172447 
H 3.6839452677 1.3280454439 5.7119533758 
O 1.5236260599 4.6239307372 7.8777827599 
H 1.4959355557 3.6345618771 7.8863703237 
H 0.5817271216 4.9254391918 7.8805703279 
O 1.4616116535 1.9271829017 7.8996596415 
H 1.9417707005 1.5824624317 8.6927658625 
H 1.9483945354 1.5802403505 7.1112394079 
O 5.2979693292 1.8914103095 5.7278439678 
O 5.3496032629 4.5879192057 5.7167355091 
H 5.7978469345 4.9266763906 4.9025998166 
H 5.3244097276 2.8800786074 5.7006237289 
H 5.7705205057 1.5778659438 4.9176886340 
O 6.5992865475 0.9907899144 7.9116486743 
H 6.1113370449 1.3309613514 8.7022271314 
H 6.1163356601 1.3332311992 7.1190308434 
H 9.9252536532 1.3270438612 4.9203310092 
O 9.1131657768 4.6076148432 7.9343691335 
H 9.5800558917 4.9090084784 7.1152009097 
H 9.1224581356 3.6180985572 7.9101284923 
O 9.1328937930 1.9121008382 7.9336157379 
H 9.5764150429 1.5745839727 7.1156014036 
H 8.2034478041 1.5752974567 7.9060172365 
O 12.9265455005 4.6207422488 5.6620929948 
H 12.9345025758 3.6313717942 5.6977331172 
H 13.3908635328 4.9289203266 6.4795549974 
O 10.3959376648 1.0202859304 5.7344018176 
O 12.9343018981 1.9339273880 5.6954270058 
H 13.3802757402 1.5912464022 6.5091384927 
H 12.0083848866 1.5877534071 5.7201797001 
O 14.1707391144 1.0275914151 7.9122591881 
H 15.1118377031 1.3334115859 7.9070441359 
O 2.8077224375 5.5116332747 5.6853161450 
H 2.3164116583 5.1716244406 6.4741733807 
H 2.3217683586 5.1755071817 4.8931097648 
O 2.7459428064 8.2120856504 5.7117523445 
H 3.6869544311 8.5177304322 5.7153323268 
H 2.7776115307 7.2230301007 5.7036451980 
O 1.4577943671 9.1101498790 7.9010095479 
H 1.9444070611 8.7816781942 8.6977028270 
H 1.9512723871 8.7664208144 7.1157054585 
O 5.3036452496 9.0796394549 5.6938824943 
O 6.5765428710 5.5120686704 7.9343144123 
H 6.1416661336 5.1758271767 7.1117164587 
H 7.5054361683 5.1716311982 7.9138002620 
H 9.9311554421 5.1696538650 4.9145778516 
H 5.7697074577 8.7769546797 6.5119456280 
O 6.5521888465 8.2125427098 7.9270692539 
H 7.4928956688 8.5211012263 7.9293431381 
H 6.5849451126 7.2235497144 7.9242532263 
H 9.9262582256 8.4956278927 4.9252187291 
O 9.0857130286 9.1223014553 7.9249505150 
H 9.5613886321 8.7731153528 7.1308536703 
H 9.5745765601 8.7750763952 8.7121043250 
O 10.3745933236 5.5027056086 5.7341025555 
H 11.3051263928 5.1698064248 5.6983747021 
O 14.2089290584 5.4817738104 7.8735938920 
H 14.1923000520 6.4705778216 7.9052701155 
H 13.7434763986 5.1726877024 8.6899229358 
O 10.3872211729 8.2021218464 5.7501982638 
H 10.3812794199 7.2130133072 5.7315094370 
O 12.9295705681 9.1159965422 5.6982503155 
H 12.0018727006 8.7750370979 5.7244395118 
H 13.3709097098 8.7769214666 6.5160685046 
O 14.1749672164 8.1791863964 7.8958484872 
H 15.1032178320 8.5197018498 7.9179911216 
H 13.7370288787 8.5142975258 8.7170850906 
H 2.7692025202 14.4126048950 5.7066020167 
H 4.4021701468 12.1130393020 5.6986226881 
O 2.7951915807 12.7079555510 5.6901993707 
H 2.3074886852 12.3650893850 6.4794735938 
H 2.3111993678 12.3687891979 4.8962516759 
O 1.4737630601 11.8054818304 7.8634232975 
H 1.4842606299 10.8160990806 7.8844670944 
H 1.9491299679 12.1044939436 8.6786206209 
O 5.3305934525 11.7735394168 5.6832259776 
H 5.7658808101 12.1181437110 6.5021559943 
H 5.3179684472 10.0689271020 5.7137444559 
O 6.5814786197 12.6781564410 7.8849175197 
H 6.5686432979 13.6677226864 7.9124407335 
H 6.1082294764 12.3723195631 8.6975185137 
H 9.9324252375 12.3680108451 6.4940028173 
H 9.9449879023 12.3564699880 4.9112711016 
O 9.1411696687 11.8193569631 7.8967963066 
H 9.1133246683 10.8300386322 7.9083958266 
H 8.1998666248 12.1229713879 7.8992636803 
H 10.3864242095 14.4085705632 5.7047397949 
H 14.2011599620 14.4158846228 7.9075663895 
O 12.9537444347 11.8107187635 5.7010808607 
H 12.0124212739 12.1180085010 5.7039322510 
H 12.9225262565 10.8215394923 5.7073237111 
O 10.4222983647 12.7084333664 5.7042942086 
O 14.1895498005 12.7154453036 7.9232236216 
H 13.7442963413 12.3744194723 7.1086946132 
H 15.1165127104 12.3699442579 7.8942745929 
O 1.5136855236 1.9057057333 12.2830718011 
H 1.9573936800 1.5633795780 13.0981894252 
H 0.5867165146 1.5635799408 12.3090728837 
H 4.3799604379 1.5744529082 10.1041489128 
O 1.4892650260 4.6191267517 12.3141452995 
H 1.5051233304 3.6312886618 12.2899501470 
H 1.9613001144 4.9270557747 11.5014758163 
O 2.7716525922 1.0138940770 10.0738385404 
H 2.3066597233 1.3087961948 10.8961786755 
O 5.2897003053 4.6225777388 10.1191760987 
H 5.7681386633 4.9221607652 9.3059101539 
H 5.2980160174 3.6339778701 10.0987330012 
O 5.3084104788 1.9152523985 10.0863903271 
H 5.7457608419 1.5751673535 10.9044018009 
O 6.5549517078 0.9769965490 12.3007441662 
H 7.4831618499 1.3157532877 12.3274545353 
H 6.1140993605 1.3151789187 13.1182566356 
O 9.1079910488 1.8768787828 12.3498219904 
H 9.5821063801 1.5829169005 11.5321213128 
H 9.1170513771 2.8659104001 12.3332992775 
O 9.1178791095 4.5808092408 12.3025755245 
H 8.1900372500 4.9190709204 12.3265754662 
H 9.5647274228 4.9316541768 13.1133129663 
H 9.9320340210 1.3354273725 9.3295582407 
O 10.3742897873 0.9992719450 10.1479097039 
O 12.9489449096 4.5838724062 10.0840439681 
H 13.3915296646 4.9319590555 10.8973060156 
H 12.0197335919 4.9205221620 10.1095577863 
O 12.9143664135 1.8817221305 10.1303478256 
H 12.9328892360 2.8704257314 10.1086262097 
H 13.3841548647 1.5775967753 9.3135664611 
H 11.3047480355 1.3361291821 10.1168623642 
O 14.2133138137 1.0080972117 12.3363210807 
H 13.7408432983 1.3107821167 11.5221337341 
O 2.7573777972 5.5312466500 10.1129663183 
H 2.3164025608 5.1885217733 9.2973345526 
H 3.6852365515 5.1873735257 10.0901983601 
O 1.4921622202 9.0802432341 12.3288968486 
H 1.9599888529 8.7796727946 11.5098230242 
O 5.2730441667 9.1134376213 10.1030809703 
O 2.7352481224 8.2264390659 10.1036469693 
H 3.6775357872 8.5309662901 10.0969614274 
H 2.7653998248 7.2372129434 10.0953680655 
O 6.5602952776 5.4792280005 12.3425740912 
H 6.5542554895 6.4681102979 12.3180811732 
H 6.0976487318 5.1803334355 11.5207965008 
H 9.9268869671 5.1612126340 9.3218569524 
H 9.9250602358 5.1660099604 10.9056093017 
H 5.7524401499 8.7740046231 10.8989772207 
H 5.7639661021 8.7679630218 9.3152372699 
O 6.5541105664 8.1825556259 12.2872689294 
H 7.4840216230 8.5180399106 12.3032135820 
H 6.1206961845 8.5218248831 13.1094714661 
O 9.0907890622 9.1109460792 12.2952269067 
H 9.5751954986 8.7671292786 11.5040295229 
H 9.5785455577 8.7718573895 13.0849943222 
O 10.3654315296 8.2057866178 10.1039585653 
H 10.3887395006 7.2167737134 10.1063063210 
O 14.1749120353 5.4927823633 12.3048318191 
H 14.2017891593 6.4824377147 12.3100930045 
H 15.1154902490 5.1898032031 12.3016734117 
O 10.4107188797 5.5037086141 10.1139567676 
O 12.9203823252 9.0736688720 10.1074441625 
H 13.3946725977 8.7732566607 10.9231194183 
H 11.3079363888 8.5057570936 10.1147674153 
O 14.1931550146 8.1833816269 12.2991165386 
H 15.1214187364 8.5242879404 12.3172175588 
H 13.7535828837 8.5252922394 13.1179038969 
H 2.7588501492 14.4021081273 10.0873920585 
H 1.5055715836 10.0696505051 12.3076288724 
O 1.5135052569 11.7781925024 12.2749708626 
H 0.5824511004 12.1099138808 12.3078428786 
H 1.9597668854 12.1171834443 13.0913097812 
O 2.7428279428 12.6945462285 10.0564951017 
H 2.2993296431 12.3634813064 10.8766775156 
H 3.6719612178 12.3544880407 10.0919684672 
O 5.2739897428 11.8032398463 10.0877713873 
H 5.2950659105 10.8135014895 10.1090343986 
H 5.7464560318 12.1081780578 10.9017032557 
O 6.5438539828 12.6654982041 12.3092413290 
H 6.5717623939 13.6552050979 12.3123479848 
H 7.4852420006 12.3617220858 12.3076410076 
O 9.1035540387 11.8082334069 12.3314129758 
H 9.1174455535 10.8196778424 12.2959539085 
H 9.5728277124 12.1207008537 11.5190428262 
H 9.9351331303 12.3856771421 9.3129042065 
H 14.2004971064 14.3971532635 12.3133374411 
O 12.9354822883 11.7815667704 10.1346083859 
H 12.0071722095 12.1232857504 10.1075425839 
H 13.3803818538 12.1199807882 9.3198579849 
O 14.2266543289 12.6864977210 12.3161279660 
H 13.7424119985 12.3473666252 13.1087007161 
H 13.7342785749 12.3554684151 11.5245375779 
H 12.9325592527 10.0621986182 10.1255948565 
O 10.4047754104 12.6853853017 10.1295877244 
H 10.3889048664 13.6751299301 10.1123523796 
H 4.3767959810 4.9164505359 14.5313576762 
O 2.7521336325 0.9722398934 14.4905138760 
H 2.3041115215 1.3088490308 15.3058549839 
H 3.6798621533 1.3139109024 14.5247808501 
O 1.5070233057 4.5791490856 16.7271363924 
H 0.5771622663 4.9145467805 16.7025687541 
H 1.9471874017 4.9232586479 15.9099876530 
O 1.4822547806 1.8778963421 16.6884826610 
H 1.9539610465 1.5871489849 17.5087897603 
H 1.4944078584 2.8672714896 16.7006104198 
O 5.2864468641 1.8762464590 14.5118315170 
O 5.3059968025 4.5790336293 14.5528221497 
H 5.7408057401 4.9191468588 13.7322527659 
H 5.7544552598 1.5755686591 15.3294569802 
H 5.2988298936 2.8654587783 14.5337989216 
O 6.5413846641 1.0097758270 16.7480076244 
H 7.4855124404 1.3096328790 16.7409778377 
H 9.9375947677 1.3221961589 13.7251733793 
O 9.1332015480 4.6101015095 16.7066020549 
H 8.1919193587 4.9169817758 16.7177065451 
H 9.1043108838 3.6223874827 16.7155865251 
O 9.0789060765 1.8957755071 16.7271764254 
H 9.5673612878 1.5576139129 17.5191969039 
H 9.5656743566 1.5575735922 15.9356948714 
O 10.3791675794 0.9816888310 14.5432372833 
O 12.9351539856 4.5754600430 14.5184217087 
H 12.0086664292 4.9215171625 14.4946232514 
H 13.3817959218 4.9216625814 13.7064917331 
H 11.3067503701 1.3248818640 14.5221387608 
O 12.9190632764 1.8857796013 14.5455109860 
H 13.3842607466 1.5770846540 13.7294604861 
H 12.9273808656 2.8753515532 14.5105468682 
O 14.1792259656 0.9772270425 16.7423103960 
H 15.1067219520 1.3184963997 16.7198827806 
H 13.7377512269 1.3264100360 15.9285721957 
O 2.7621447114 5.4798940350 14.5375566346 
H 2.3037680083 5.1754930410 13.7153294856 
H 2.7557751852 6.4696157571 14.5064983214 
O 2.7548578829 8.1684573417 14.5206570012 
H 3.6832708486 8.5080571109 14.5009757682 
H 2.3141220972 8.5173662881 13.7058572337 
O 1.4908890864 9.0609943278 16.7290038958 
H 1.9587816763 8.7565182390 15.9124718621 
O 5.3066539461 9.0693586776 14.4935218161 
O 6.6055794173 5.5212704704 16.7322993665 
H 6.1162026479 5.1817339326 15.9433918583 
H 6.1199053176 5.1794668000 17.5241103389 
H 9.9242810115 5.1824312930 15.2943795268 
H 5.7768676232 8.7712400381 15.3104987824 
O 6.6040471452 8.2139713713 16.7091315470 
H 6.5836157265 7.2248264022 16.7360722045 
H 6.1295124381 8.5217144339 17.5196097146 
H 9.9451088029 8.5145401875 15.2994578843 
O 9.1548776252 9.0719678266 16.7145128757 
H 8.2131765205 8.7684458622 16.7217020101 
O 10.3874248772 8.1739997541 14.4832158437 
O 10.3963887422 5.4856923151 14.4803663492 
H 10.3872625780 6.4757231654 14.5051145886 
O 14.2145561635 5.4733586310 16.7092452899 
H 14.2030865419 6.4623377437 16.6915139951 
H 13.7410613359 5.1723979948 15.8938722268 
H 11.3169010254 8.5118407583 14.5096886526 
O 12.9278712584 9.0673782557 14.4927168433 
H 13.3955072952 8.7660006322 15.3112037290 
O 14.1963634380 8.1776568120 16.6957304332 
H 15.1266202161 8.5140171225 16.7162363322 
H 13.7567135087 8.5163324095 17.5142817695 
H 4.3876258644 12.1021250356 14.5013243511 
O 2.7762353768 12.6601692411 14.4702547979 
H 2.7632890502 13.6499955277 14.4969092646 
H 2.3034134952 12.3564326677 15.2849143148 
O 1.5096908456 11.7644048411 16.6708269650 
H 0.5801371107 12.1024882593 16.6924115144 
H 1.9476922457 12.1158344959 17.4852360531 
H 1.5049086092 10.0498255280 16.7028487756 
H 6.5671981266 14.3987929508 16.7411544573 
O 5.3153315533 11.7598867134 14.5290374553 
H 5.7615268705 12.1032705207 13.7159994185 
H 5.3109976645 10.0593289810 14.5160343975 
O 6.5566056545 12.6863967119 16.7441273691 
H 6.1190734386 12.3530777301 15.9225303872 
H 7.4886892665 12.3564742387 16.7162616100 
H 9.9281895253 12.3700966444 13.7226972982 
O 9.0937167558 11.7758916542 16.7180022875 
H 9.5746322465 12.1158281073 15.9229583545 
H 9.5837860945 12.1160537913 17.5057699783 
H 9.1266441317 10.0603075378 16.7161751161 
O 12.9420284448 11.7555716238 14.5001020887 
H 13.3869370319 12.1002498121 15.3150293927 
H 12.0151150587 12.0983281005 14.5237603638 
O 10.3968652412 12.6701463065 14.5400939546 
H 10.3903434387 13.6599709396 14.5181211797 
H 12.9362671325 10.0577083150 14.5192742626 
O 14.2139598891 12.6576544426 16.6808811552 
H 13.7545935006 12.3515721416 17.5020627215 
H 14.2004432622 13.6469770695 16.7091762735 

