&CONTROL
   calculation      = 'vc-relax'
   tstress          = .true.
   tprnfor          = .true.
   outdir           = './'
   pseudo_dir       = '/global/homes/p/ppiaggi/QuantumEspresso/pseudos'
/
&SYSTEM
   ecutwfc          = 150
   input_dft        = 'SCAN'
   ntyp             = 2
   nat              = 384
   ibrav            = 0
/
&ELECTRONS
   mixing_beta      = 0.5
   startingpot      = 'atomic'
   startingwfc      = 'atomic+random'
/
&IONS
/
&CELL
/

ATOMIC_SPECIES
O 15.999400004115753 O_ONCV_PBE_sr.upf
H 1.0079400002592869 H_ONCV_PBE_sr.upf

K_POINTS gamma

CELL_PARAMETERS angstrom
15.25803800948062 0.00000000000000 0.00000000000000
0.00000000000000 14.38322241763873 0.00000000000000
0.00000000000000 0.00000000000000 17.62086015988676

ATOMIC_POSITIONS angstrom
O 1.5132802314 1.8990473258 3.5298394173 
H 0.5826656420 1.5658732147 3.5005782922 
H 1.9545286214 1.5667133248 2.7104027633 
H 4.3810127979 4.9144017819 1.2857724453 
O 1.4773691234 4.6066358509 3.4894614444 
H 1.4984306451 3.6183787273 3.5104473802 
H 1.9485322966 4.9088048459 4.3043524465 
O 2.7548156714 0.9894349783 1.3116379776 
H 3.6839693888 1.3281012051 1.2882925528 
H 2.3133495885 1.3299263153 0.4943429532 
O 5.2859062007 1.9128787298 1.3015779523 
O 5.3219478785 4.6107934077 1.2888577375 
H 5.2952284853 3.6216861827 1.2963441108 
H 5.7752688295 1.5652378579 2.0878959581 
H 5.7664757458 1.5749597901 0.5061504543 
O 6.5648425448 1.0067196128 3.4828899441 
H 7.5049313952 1.3151126032 3.4876815529 
O 9.1163609766 1.8893702722 3.4706491013 
H 9.1267982111 2.8788590801 3.5003345456 
H 9.5814664465 1.5808460588 4.2875786310 
O 9.1334867989 4.5778281192 3.4769742490 
H 8.2073387175 4.9216514623 3.4964757242 
H 9.5727642271 4.9219886647 4.2943582094 
H 9.9404331643 1.3327741162 2.0886996488 
O 12.9549530845 4.5717638006 1.3202532097 
H 13.3953682923 4.9079216734 0.5016294160 
H 12.0244097424 4.9059948526 1.2908249615 
O 12.9686346510 1.8764498157 1.3024849224 
H 12.9403356860 2.8658973013 1.3071633690 
H 12.0264717013 1.5735631542 1.3021880770 
O 10.4096685943 1.0221545087 1.2742518671 
O 14.2351590737 0.9838101559 3.5019721486 
H 13.7478335482 1.3290795410 4.2909845764 
H 13.7522778545 1.3229060496 2.7075766602 
O 2.7599052817 5.4806124122 1.2682206298 
H 2.2984502705 5.1735828939 2.0864792189 
H 2.7542693190 6.4702197833 1.3015554399 
O 1.5085871573 9.0764148905 3.5008253386 
H 0.5657417980 8.7783125523 3.5037218808 
O 2.7462869025 8.1675484912 1.2827937864 
H 3.6700847635 8.5194879230 1.3077772071 
H 2.2967500182 8.5111095619 2.0940374354 
O 5.2803207267 9.0913626261 1.3241090183 
O 6.5811326358 5.4882325258 3.5158923354 
H 6.5594609221 6.4773885043 3.4929287145 
H 6.1117978686 5.1819061608 2.7014372479 
H 9.9395347404 5.1641581487 2.0781033245 
H 9.9382866537 5.1633717518 0.4944406077 
H 5.7592996435 8.7900605024 0.5130857282 
O 6.5437234550 8.1837295132 3.5175626720 
H 6.0991586641 8.5284506393 2.7028533740 
H 7.4754445943 8.5134087835 3.4824457141 
O 9.0910572067 9.0831998006 3.4726400059 
H 9.5776888694 8.7484225793 4.2659464973 
H 9.5801600908 8.7470238184 2.6820088108 
O 10.3824994603 8.1991015115 1.2773600616 
H 10.4115005567 7.2097627815 1.2785839017 
O 14.1893512146 5.5104311159 3.5274066260 
H 15.1159449748 5.1677838338 3.5067873898 
H 13.7494418779 5.1686615272 2.7103930395 
O 10.4276693530 5.4993011828 1.2867781350 
O 12.9369600381 9.0760272327 1.2738079355 
H 13.3983326114 8.7679113760 2.0934269877 
H 11.3232558449 8.5050442273 1.2827973062 
O 14.2116726628 8.2094175941 3.4845589480 
H 14.2007538358 7.2204697354 3.5086879529 
H 13.7370914275 8.5117740557 4.2978946908 
H 1.4900247856 10.0652777795 3.5062789364 
H 4.3822975628 12.1273783614 1.2996046642 
O 1.4768633725 11.7777145083 3.5087962304 
H 1.9560894661 12.1227742110 4.3016663572 
H 1.9577251744 12.1256784961 2.7178267670 
O 2.7758436901 12.6809652663 1.3244780472 
H 2.3092661020 12.3730113384 0.5081204916 
H 2.7630310791 13.6705467386 1.2939200605 
H 6.5977636637 14.4014242108 3.4920066937 
O 5.3110156492 11.7867179530 1.3247481806 
H 5.7546283603 12.1246413094 0.5077741882 
O 6.6150649360 12.6826081296 3.4992764377 
H 6.1206229074 12.3503770213 4.2886145804 
H 6.1228094049 12.3537962541 2.7062101161 
H 5.2971921115 10.0807236188 1.3051701271 
O 9.1465065508 11.7922562497 3.4973146156 
H 8.2017882169 12.0892194784 3.4976425237 
H 9.1240787477 10.8037056906 3.4852214716 
H 9.9326906786 12.3711780857 2.1010415669 
H 9.9288741902 12.3749795793 0.5206519482 
H 10.3911873064 14.4156409710 1.3048988053 
O 12.9508381440 11.7692407001 1.2921720969 
H 12.0251268745 12.1153670395 1.3134777113 
H 13.3935540283 12.1075646267 2.1086258198 
O 14.1887224335 12.6640572703 3.5201784500 
H 14.2120383947 13.6533768168 3.5177470600 
H 15.1321713900 12.3663939758 3.5168561301 
H 12.9451975532 10.0650888034 1.3054038297 
O 10.4150044299 12.7179232852 1.3100024081 
O 2.7472563857 0.9992836398 5.7483631184 
H 2.3049299679 1.3257917736 4.9260913257 
H 3.6775528108 1.3320811276 5.7123747626 
O 1.4579651856 4.5909741767 7.9150639897 
H 1.9446586289 4.9304319463 8.7051124023 
H 1.9486505397 4.9245565784 7.1223978204 
O 1.4646269433 1.8891004203 7.9416667047 
H 1.4765611165 2.8779691245 7.9183534483 
H 1.9412991282 1.5891115493 7.1278741159 
O 5.2872074044 1.9124283091 5.6820887080 
O 5.2959571428 4.6064605309 5.7213496589 
H 5.3110948567 3.6176687778 5.6840698069 
H 5.7593445805 4.9218347864 4.9064346231 
H 5.7795496252 1.5758198069 6.4709820872 
H 5.7690681477 1.5698966678 4.8896314142 
O 6.5804952187 0.9891109991 7.8648207454 
H 7.5104922168 1.3275352055 7.8902958842 
H 6.1397474275 1.3238797966 8.6836268153 
H 9.9358058955 1.3234731838 6.4919883037 
O 9.1307599123 4.5821934392 7.8884076460 
H 8.2027743943 4.9251812380 7.9126133076 
H 9.5721425059 4.9253886375 8.7047128795 
O 9.1148206415 1.8873702140 7.8751469898 
H 9.1225044063 2.8766680112 7.9029862498 
H 9.5730028864 1.5837786271 8.6985556184 
O 12.9352379402 4.5731142632 5.7242943456 
H 12.0073750724 4.9130961845 5.6967614637 
H 13.3812239743 4.9154967034 4.9105126735 
O 10.4016312511 1.0153421107 5.6753596375 
O 12.9632390853 1.8814465933 5.6946282580 
H 12.0225582130 1.5757002007 5.6912820883 
H 12.9304806588 2.8710834235 5.6955831053 
O 14.1939561511 0.9838259953 7.9316936681 
H 13.7545150005 1.3260498578 7.1157341970 
H 15.1211160701 1.3298319861 7.9148853086 
O 2.7362586870 5.4675900870 5.7242090718 
H 3.6763474048 5.1593028654 5.7172381981 
H 2.7703902085 6.4573337274 5.7132112979 
O 2.7522506041 8.1543914539 5.7181995629 
H 3.6789711352 8.5025145142 5.6946653410 
H 2.3073327539 8.4982961518 4.9053216679 
O 5.2770029923 9.0677764741 5.7175874000 
O 1.4948865186 9.0899856157 7.9169458422 
H 1.9373791405 8.7428471975 7.1033213997 
H 0.5668876757 8.7499457377 7.8974350551 
O 6.5899599898 5.4763549730 7.9269488084 
H 6.5745041559 6.4661490684 7.8988911844 
H 6.1216882639 5.1686584353 7.1122203081 
H 9.9240994744 5.1790776610 6.4929854090 
H 5.7484090728 8.7722774046 4.8991194976 
O 6.5962237439 8.1640910926 7.8934085686 
H 6.1123184115 8.5082257505 8.6837992138 
H 6.1085431317 8.5030480664 7.1027764061 
H 9.9302149569 8.5072011197 6.4814613085 
O 9.1314075850 9.0891476186 7.8722289819 
H 8.2026922489 8.7513413160 7.8968066243 
H 9.5722464552 8.7542383343 8.6912705311 
O 10.3728797047 8.1737262725 5.6616061472 
O 10.3908708402 5.4768539559 5.6734225164 
H 10.3805663727 6.4665992345 5.6936116635 
O 14.1752098455 5.4869709203 7.9470866353 
H 15.1073822163 5.1574298640 7.9176935925 
H 13.7355774268 5.1513431855 7.1278093966 
H 11.3024323992 8.5131127833 5.6924258698 
O 12.9059719734 9.0671863704 5.6851486210 
H 13.3709257960 8.7590037043 6.5016981046 
O 14.1960811592 8.1959229575 7.8951070108 
H 14.1831784452 7.2078934430 7.9249924629 
H 13.7307095463 8.5058583753 8.7105072730 
H 4.3775288474 12.1191801532 5.7055240357 
O 2.7737182203 12.6798162889 5.7000866824 
H 2.3009115251 12.3699604320 6.5122590163 
H 2.7587567423 13.6687202803 5.7291334326 
O 1.5113250195 11.7921455880 7.9119199708 
H 1.4851998097 10.8037783306 7.9052571278 
H 0.5699619270 12.0953626226 7.9139405879 
O 5.3033198578 11.7718949336 5.6768253031 
H 5.7534687818 12.1160603102 6.4870224994 
H 5.2859830621 10.0566767989 5.6990936276 
O 6.5559780725 12.6793220506 7.8884355953 
H 7.4952857372 12.3695386540 7.8924031043 
H 6.5885806482 13.6686380031 7.8866134044 
H 9.9326874757 12.3481601815 4.9097578292 
O 9.1096209198 11.8011378031 7.9202847870 
H 9.1207648801 10.8130455992 7.8947237696 
H 9.5823695182 12.1044605556 7.1050905490 
H 10.3871290409 14.4106120756 5.7009177029 
O 12.9144055063 11.7535715948 5.7070686625 
H 13.3918944377 12.0959168083 6.5023696423 
H 13.4043705049 12.0993378057 4.9200999009 
O 10.3771608435 12.6924170399 5.7233633857 
H 11.3033380413 12.3477858100 5.7005028575 
H 12.9261346692 10.0571159359 5.7108788177 
O 14.2111912377 12.6621594553 7.8972431360 
H 13.7374129609 12.3669533327 8.7132878711 
H 14.2015381155 13.6511894114 7.9128820441 
O 1.4737538844 1.9171590995 12.3167446353 
H 1.9570780820 1.5683676860 13.1064854855 
H 1.9540898346 1.5708159251 11.5236109586 
H 4.3979080844 1.5710788351 10.1106337605 
O 1.5212574938 4.6189921101 12.3198871636 
H 1.4968586655 3.6299984754 12.3210352607 
H 0.5795103663 4.9215993772 12.3228407498 
O 2.7725128113 1.0161239448 10.1429060863 
H 2.2991612871 1.3209152178 9.3300599673 
O 5.2984560795 4.6108081723 10.1267431369 
H 5.3110097987 3.6221929459 10.1023156813 
H 5.7679241660 4.9156385752 9.3106256271 
O 5.3264111468 1.9083655373 10.0786409788 
H 5.7723033868 1.5680457340 10.8930979398 
O 6.5736588610 0.9716535866 12.2830504257 
H 6.1297372437 1.3160035379 13.0966549442 
H 7.5004508281 1.3176944580 12.3080351563 
O 9.0999274229 1.8857536385 12.2912553030 
H 9.5761787825 1.5894360417 13.1071242670 
H 9.1047736758 2.8753436041 12.3137859617 
O 9.1131075703 4.5835672767 12.3441293562 
H 8.1859655077 4.9270756765 12.3209904870 
H 9.5565975295 4.9251268752 11.5289800356 
O 10.3529091957 0.9906355991 10.0890702633 
H 9.9109390378 1.3327378173 10.9059300646 
O 12.9044734602 4.6093219577 10.1515820072 
H 12.9172718357 3.6204170619 10.1344289016 
H 13.3770724066 4.9031320226 9.3332272723 
O 12.8950626849 1.9055613199 10.1246367670 
H 13.3824707811 1.5745263727 9.3307707051 
H 13.3901929853 1.5685738844 10.9124739547 
H 11.2836580231 1.3228795030 10.1177682917 
O 14.1863666322 1.0232743050 12.3086750279 
H 15.1293936673 1.3246507554 12.3098530004 
O 2.7510338095 5.5249879353 10.1040195183 
H 2.3100678177 5.1777649891 10.9185790538 
H 3.6767961103 5.1798999606 10.1188993189 
O 1.4732025632 9.0985839744 12.3375334341 
H 1.9414587117 8.7965918945 11.5202316328 
H 4.3842346856 8.7816834122 10.1004026265 
O 2.7644670502 8.2262320193 10.1317483962 
H 2.2947073967 8.5178090878 9.3116716177 
H 2.7556334330 7.2371287302 10.1174800817 
O 6.5781360528 5.4855779303 12.3343907718 
H 6.5673871505 6.4747757749 12.3038340196 
H 6.1111509419 5.1788145620 11.5178691702 
O 10.3517264342 5.4813711532 10.1198115513 
O 5.3136054377 9.1172865234 10.0719502683 
H 5.7570023880 8.7784265177 10.8880638618 
O 6.5627590938 8.1845938646 12.2735185962 
H 7.4935845104 8.5180806157 12.3069502130 
H 6.1219676079 8.5165004084 13.0933789237 
O 9.1027096732 9.0688872681 12.2957694908 
H 9.5768505678 8.7664534440 13.1095880745 
H 9.9239288346 8.5116542389 10.9068556284 
O 10.3673684609 8.1729607424 10.0901239558 
O 14.2381759873 5.5212873453 12.3206164269 
H 13.7499328240 5.1781039588 11.5323207858 
H 13.7519747691 5.1802612522 13.1121370865 
H 11.2927186918 5.1762669748 10.1242226469 
H 10.3795967815 6.4708314046 10.1165871539 
O 12.9075138052 9.0781887766 10.0982736251 
H 13.3756511438 8.7757002676 10.9150385084 
H 11.2952879395 8.5145589119 10.1187083115 
O 14.1804812033 8.2169580937 12.3299233779 
H 15.1192790376 8.5277185494 12.3243932295 
H 14.2135927373 7.2277831501 12.3255645358 
H 2.7607379452 14.4099941116 10.1160512099 
H 1.4842336697 10.0871839034 12.3141472359 
O 1.4628918984 11.7997951450 12.3190796145 
H 1.9552922025 12.1302579366 13.1100838024 
H 1.9536231692 12.1326543724 11.5273259433 
O 2.7526664250 12.7082256869 10.1318571915 
H 3.6816902598 12.3692272609 10.1012545641 
H 2.3063158886 12.3621523958 9.3204573240 
O 5.2890180797 11.8141572635 10.1088619196 
H 5.3035645600 10.8247505202 10.0841645202 
H 5.7613200750 12.1192510379 9.2948700515 
O 6.5852906627 12.6627398463 12.3253296849 
H 6.1196717587 12.3637112505 11.5059611379 
H 6.5819299459 13.6525264583 12.3003119404 
H 9.1199622732 10.0580645258 12.3180398587 
O 9.1272401993 11.7691214871 12.3425001518 
H 8.1974111409 12.1065849038 12.3171746019 
H 9.5653219317 12.1128351361 11.5242126163 
H 9.9157804641 12.3689537350 9.3196076346 
H 10.3600588011 13.6631037962 10.1158496426 
H 14.2128805210 14.4164973166 12.3159070128 
O 12.9334100077 11.7778028524 10.1011721024 
H 12.0060074504 12.1188232727 10.1275050942 
H 13.3774419277 12.1206991559 10.9152154968 
O 14.1883150623 12.7139990509 12.3073561825 
H 13.7492576420 12.3761215500 13.1262457505 
H 15.1184592006 12.3782221719 12.3291565953 
H 12.9202371376 10.0670976932 10.1243662623 
O 10.3777190433 12.6739324832 10.1392630528 
H 4.4050159540 4.9233315632 14.5217676060 
O 2.7893439040 1.0128692027 14.4871484128 
H 2.3179070803 1.3216648445 15.3000292493 
H 4.4061484109 1.5795170698 14.5102070337 
O 1.4692512102 4.5840804202 16.7049810179 
H 1.9573777950 4.9297670844 15.9185569755 
H 1.9457635732 4.9289386698 17.5003223261 
O 1.5241020944 1.8867895139 16.7057042224 
H 1.4965698511 2.8754972033 16.7064677936 
H 0.5834758670 1.5809100823 16.7103704693 
O 5.3324220258 4.5783895289 14.5422524678 
H 5.7684875621 4.9227668986 13.7237866315 
O 5.3472315371 1.8834408301 14.5116110986 
H 5.3188455672 2.8727177766 14.5131850728 
O 6.5981212364 1.0178459772 16.7376124357 
H 6.1298136845 1.3214759784 15.9206675640 
H 9.9456709713 1.3434766918 15.3063209587 
O 9.1536621576 4.6121184078 16.7172036085 
H 9.1280048332 3.6221021977 16.7220282565 
H 8.2103126071 4.9138659789 16.7225061973 
O 9.1443762187 1.9219178694 16.7047908973 
H 8.2170388627 1.5795834000 16.7252495577 
H 9.5867608960 1.5776212897 17.5209496395 
O 10.3813380824 1.0058180844 14.4853477430 
O 12.9601877289 4.6188374308 14.5092939512 
H 12.9425888339 3.6295368393 14.5057907529 
H 12.0149490669 4.9136061342 14.5146011527 
H 11.3116622111 1.3394738197 14.5062458046 
O 12.9242098134 1.9189646534 14.5039249569 
H 13.4089528169 1.5771321392 13.7120727055 
H 13.4073799173 1.5770040458 15.2955189491 
O 14.2350731656 1.0129444293 16.6932563650 
H 13.7590841498 1.3149250335 17.5052814198 
O 2.8014127316 5.4924266891 14.5311402058 
H 2.7836392083 6.4814155544 14.5075201322 
H 2.3257076564 5.1882675898 13.7188179522 
O 2.7901899321 8.1902351323 14.5155295123 
H 2.2989203328 8.5214219052 15.3074097807 
H 2.3051908562 8.5333266899 13.7253682583 
H 4.3980261432 8.7675880481 14.5262059715 
O 1.4930446812 9.0996890460 16.6955869240 
H 1.9317305604 8.7568897319 17.5126298874 
H 0.5622635262 8.7643848181 16.7188113474 
O 6.6182862812 5.5062316711 16.7274314566 
H 6.1258102111 5.1644871423 17.5144135502 
H 6.1367717897 5.1683359345 15.9322767252 
H 9.9366891128 5.1607394290 15.3229254097 
H 9.9315469381 5.1681820448 13.7401927704 
O 5.3276201128 9.1032959795 14.4987750262 
H 5.7722968532 8.7643380148 15.3147407819 
O 6.5562213285 8.2161954257 16.7285240491 
H 6.5857809989 7.2279978056 16.7298745320 
H 7.4982194824 8.5205626336 16.7255250079 
O 9.0911951269 9.1136417524 16.7190310899 
H 9.5747615139 8.7748536276 15.9251642141 
H 9.5829757486 8.7685581284 17.5050841439 
O 10.3688750940 8.2109460553 14.5233580073 
H 10.3990216739 7.2223592407 14.5308310107 
O 10.4229118825 5.5016882183 14.5302785617 
O 14.1892951805 5.5103077812 16.7314805025 
H 15.1177579629 5.1721957866 16.7027811807 
H 13.7454737241 5.1739836609 15.9135767695 
H 11.3104612430 8.5169842794 14.5213597498 
O 12.9029537588 9.1141273093 14.5168414111 
H 13.3839188671 8.7701527479 15.3094760376 
H 13.3896084162 8.7702657563 13.7264057440 
O 14.2102217304 8.2100482029 16.6962625520 
H 14.1994611015 7.2209058035 16.7184594857 
H 13.7479379357 8.5136401955 17.5176570809 
H 2.7749440985 14.4068754503 14.5187158058 
O 2.7647235844 12.7068577688 14.5066369217 
H 3.6906656793 12.3620620657 14.5289843146 
H 2.3181849399 12.3611073245 15.3190944294 
O 1.5235695200 11.8022818490 16.7182360578 
H 1.4932326619 10.8137961160 16.7197630870 
H 0.5820921585 12.1077615009 16.7197219535 
H 6.5810435756 14.4113935557 16.7176155241 
O 5.3121933237 11.8023360502 14.5409279073 
H 5.7759008543 12.1011374884 13.7198520239 
H 5.3241749194 10.8130756838 14.5223785538 
O 6.5652857750 12.7100335204 16.7435978448 
H 7.4930676118 12.3651222068 16.7226315821 
H 6.1258553999 12.3691423545 15.9252070913 
H 9.9235663699 12.3662247466 13.7240587414 
O 9.0944205144 11.8077072419 16.7506528954 
H 9.1078530837 10.8181781491 16.7248675888 
H 9.5626549546 12.1105219408 15.9341203560 
H 14.2201313122 14.4070192281 16.7144732500 
O 12.9565422476 11.8124168487 14.5367385839 
H 12.9308747863 10.8232273536 14.5287258797 
H 12.0142654562 12.1126726156 14.5319842874 
O 10.3936859870 12.6730320599 14.5390959945 
H 10.3817371764 13.6605747836 14.5108867935 
O 14.2461805065 12.7009020379 16.7219992215 
H 13.7626415053 12.3652316475 17.5159537407 
H 13.7500844824 12.3623122868 15.9351626394 

