&CONTROL
   calculation      = 'vc-relax'
   tstress          = .true.
   tprnfor          = .true.
   outdir           = './'
   pseudo_dir       = '/global/homes/p/ppiaggi/QuantumEspresso/pseudos'
/
&SYSTEM
   ecutwfc          = 150
   input_dft        = 'SCAN'
   ntyp             = 2
   nat              = 384
   ibrav            = 0
/
&ELECTRONS
   mixing_beta      = 0.5
   startingpot      = 'atomic'
   startingwfc      = 'atomic+random'
/
&IONS
/
&CELL
/

ATOMIC_SPECIES
O 15.999400004115753 O_ONCV_PBE_sr.upf
H 1.0079400002592869 H_ONCV_PBE_sr.upf

K_POINTS gamma

CELL_PARAMETERS angstrom
15.25604944581367 0.00000000000000 0.00000000000000
0.00000000000000 14.37913812961787 0.00000000000000
0.00000000000000 0.00000000000000 17.61555680196394

ATOMIC_POSITIONS angstrom
O 1.5146942772 1.8821695455 3.5340830031 
H 0.5748332810 1.5762989747 3.5289114027 
H 1.4837874680 2.8720194635 3.5268838738 
H 4.3863612230 1.5755593311 1.3182871707 
O 1.4974268705 4.5719051039 3.5331952091 
H 0.5712802001 4.9206551513 3.5079125902 
H 1.9416905447 4.9124943766 2.7181607600 
O 2.7736405879 1.0166122404 1.3026950202 
H 2.3027267070 1.3170507822 2.1181430395 
O 5.2867059041 4.6160763684 1.2964873548 
H 5.7660884117 4.9205763118 2.1062615264 
H 5.3008918817 3.6271587701 1.3201639789 
O 5.3140613499 1.9170603118 1.3371826964 
H 5.7522543970 1.5814371644 0.5170941195 
O 6.6098996521 0.9787095742 3.5131572941 
H 6.1207934212 1.3145100237 4.3051384521 
H 6.1212355608 1.3170691481 2.7230404511 
O 9.1368658841 1.9128321865 3.5282395060 
H 9.5799473750 1.5727131883 2.7124376465 
H 8.2098874827 1.5681726749 3.5075231280 
O 9.1201937934 4.6193012713 3.4978552770 
H 9.1321074618 3.6306105128 3.5187035122 
H 9.5933998406 4.9207269415 4.3122352168 
O 10.3718766404 1.0217940584 1.2997274308 
O 12.9543075334 4.5767285415 1.3244282288 
H 13.3944939283 4.9190914531 0.5068514581 
H 12.0276322627 4.9204142430 1.3023418237 
O 12.9300586091 1.8861330465 1.3211928944 
H 13.3992680564 1.5782043870 0.5073995590 
H 12.9481643111 2.8755665074 1.2956126384 
H 11.3131519778 1.3253316605 1.2992991366 
O 14.2016053153 1.0171898937 3.5341600942 
H 13.7396167192 1.3247553075 2.7151301755 
O 2.7323746143 5.4787619031 1.3043250378 
H 3.6752373093 5.1798289312 1.3074020781 
H 2.7553121254 6.4683081828 1.3099355674 
O 1.5172743956 9.0717936746 3.5060518605 
H 0.5739020621 8.7715252218 3.5033232194 
H 4.3983047723 8.7649704019 1.3175733652 
O 2.7884661355 8.1755039009 1.3197704346 
H 2.3010968362 8.5181958711 2.1102501278 
H 2.3089498487 8.5213044863 0.5273746809 
O 6.5645674338 5.4810932736 3.5101245287 
H 6.5913412245 6.4700437210 3.5178854297 
H 7.5060043817 5.1779346248 3.5157393600 
H 9.9371010156 5.1805486273 2.1049703404 
H 9.9278855086 5.1853501608 0.5223699864 
O 5.3267471267 9.1036653743 1.3346484822 
H 5.7627405776 8.7647010092 0.5141221994 
O 6.6220137725 8.1809324366 3.5196374187 
H 6.1344262280 8.5220087049 4.3113805170 
H 6.1359729137 8.5186192175 2.7279308340 
O 9.1618032547 9.0697960759 3.4961903865 
H 8.2200482706 8.7651694025 3.5050663430 
H 9.9530668754 8.5197934490 2.0911892619 
O 14.2256274242 5.4810453724 3.5239438445 
H 14.2126756856 6.4697480114 3.4942715246 
H 13.7544124970 5.1738247487 2.7098075318 
O 10.4211474825 5.5184050211 1.3115920788 
O 12.9756799238 9.0830890769 1.2943256119 
H 12.0335937117 8.7791719045 1.3014976161 
O 10.4292129850 8.2139440301 1.2791335325 
H 10.4100821823 7.2250626436 1.3071341086 
O 14.2373676172 8.1848747946 3.4972358420 
H 13.7540161234 8.5277765631 2.7043720996 
H 13.7518763189 8.5255128376 4.2886700611 
H 2.7592450910 14.4066641308 1.3199329305 
H 1.4919048287 10.0611201155 3.5055006691 
O 1.4628534224 11.7738419095 3.5002631168 
H 1.9533168507 12.1122604309 4.2894451638 
H 1.9488587920 12.1093395101 2.7073879345 
O 2.7539076350 12.6965917453 1.3220900487 
H 3.6830933050 12.3602242189 1.3016796144 
H 2.3169807207 12.3613360027 0.5006991819 
O 5.3063484366 11.8032173278 1.2854974307 
H 5.3169757054 10.8142946112 1.3090273282 
H 5.7781084531 12.1050024132 2.1010920204 
O 6.6098582317 12.6607384858 3.4855423374 
H 6.5947405446 13.6499526023 3.5122097810 
H 6.1379742098 12.3544776225 4.3002827309 
H 9.1314828046 10.0593143784 3.4920207083 
O 9.1437445936 11.7634074226 3.4593956854 
H 9.5891404716 12.1030908517 4.2747542488 
H 8.2142276795 12.1022660073 3.4905219428 
H 9.9312965782 12.3588035498 0.4889998088 
H 9.9392596707 12.3583298708 2.0710551268 
H 10.3999255000 14.4121934908 1.2894324736 
H 14.1852458595 14.4073459276 3.5055849918 
O 12.9574009191 11.7771023011 1.2570429414 
H 13.3873439208 12.1114974671 2.0825840628 
H 12.0252906371 12.1070471717 1.2764043626 
O 14.1763308332 12.6951844380 3.4768653276 
H 13.7360515542 12.3548657063 4.2951861056 
H 15.1061526892 12.3611864480 3.5044898778 
H 12.9481125219 10.0725885569 1.2917631752 
O 10.4218587366 12.6982680104 1.2771793900 
H 4.3835922564 4.9164391847 5.6995018308 
O 2.7995025907 0.9790674974 5.7121970439 
H 2.3085090170 1.3238660259 4.9246457406 
H 2.3153483347 1.3178478761 6.5059627702 
H 4.3913331305 1.5696670767 5.7048594537 
O 1.4806543497 4.5853493992 7.9169461531 
H 1.9602474149 4.9259497189 7.1227105995 
H 1.9628445764 4.9346929594 8.7070282082 
O 1.5238585719 1.8817162765 7.9035344139 
H 0.5792100298 1.5849351283 7.9035498569 
H 1.5031300680 2.8707636420 7.9058586659 
O 5.3106656278 4.5698042924 5.7266065231 
H 5.7597786378 4.9157620174 4.9166059688 
O 5.3334127000 1.8748256948 5.7055277751 
H 5.3032740843 2.8641615651 5.7032852268 
O 6.5601438991 0.9870011752 7.9253132897 
H 6.1159204944 1.3251463677 7.1079427167 
H 7.4887190385 1.3244017683 7.8972631186 
H 9.9420866052 1.3193600694 4.8988670782 
O 9.1419802543 4.6085400803 7.9071836296 
H 8.1982681964 4.9029500968 7.9063372619 
H 9.1232011494 3.6190811420 7.9031324620 
O 9.0982088263 1.9127864348 7.8960265362 
H 9.5825639115 1.5707004314 7.1055681984 
H 9.5777347240 1.5652355687 8.6882344657 
O 12.9422450749 4.6129773569 5.7455610189 
H 13.4060015917 4.9155297208 4.9267844148 
H 12.9471904720 3.6228443913 5.7175600381 
O 10.4156347237 1.0169629742 5.7143481247 
O 12.9472312564 1.9257486853 5.7310620177 
H 12.0184510299 1.5850542131 5.7074304060 
H 13.3864371071 1.5817965127 4.9138678537 
O 14.2406060836 1.0027351684 7.9101312192 
H 13.7555338210 1.3407718718 7.1169106984 
H 13.7506997080 1.3436297861 8.6986727719 
O 2.7845178445 5.4765385253 5.7206638420 
H 2.3050135415 5.1712917084 4.9105692898 
H 2.7751244656 6.4661768380 5.6931834123 
O 2.8036404191 8.1733634748 5.6926502646 
H 2.3149015461 8.5108891120 4.9011867734 
H 2.3131583677 8.5110467790 6.4822563019 
H 4.3993259153 8.7691524509 5.6962358086 
O 1.5021759573 9.1051369079 7.8702882800 
H 0.5738367246 8.7660294496 7.9038718501 
H 1.9457602147 8.7755850195 8.6900049327 
O 6.5791614800 5.4619435747 7.9376430763 
H 6.1074785235 5.1560149708 7.1240169867 
H 6.5682017437 6.4513390601 7.9093060162 
H 9.9443926648 5.1716750018 6.5071257172 
O 5.3423810773 9.0689078481 5.7038143122 
O 6.5661034452 8.1550385786 7.9370430324 
H 7.4924486384 8.4987410144 7.9073149338 
H 6.1224271407 8.4979347027 7.1226072671 
H 9.9478482572 8.5118740188 4.9016537582 
O 9.1050326683 9.0743544871 7.9142083932 
H 9.5804606210 8.7696370661 7.1018479860 
O 10.3958543178 5.5174496084 5.6979165017 
H 11.3219330237 5.1722447426 5.7264582064 
O 14.1939070060 5.5039663242 7.9409350250 
H 13.7578367921 5.1617151509 7.1204751914 
H 15.1238467497 5.1695286808 7.9214056497 
O 10.4178980891 8.2115381957 5.7188969650 
H 10.4050590214 7.2222189157 5.7034391802 
O 12.9601415755 9.1099811685 5.6913135568 
H 13.3986072307 8.7645432718 6.5075623527 
H 12.0309054124 8.7709306697 5.7104296061 
O 14.2175061553 8.2047500139 7.8955630443 
H 13.7431156198 8.5063690417 8.7095152186 
H 14.2013926634 7.2154292120 7.9191260137 
H 4.4037902501 12.1070878428 5.6906950919 
O 2.7953472890 12.6685122237 5.6698824919 
H 2.7825906730 13.6582761685 5.7005197369 
H 2.3247488434 12.3614491948 6.4842708117 
O 1.4914467935 11.8031960459 7.8662672544 
H 1.9648749281 12.1035220074 8.6816708966 
H 1.4985305734 10.8139329751 7.8911144616 
O 5.3323491447 11.7648408730 5.6740155623 
H 5.7662286802 12.1076491263 6.4948186554 
H 5.3195649979 10.0584402569 5.7016898199 
O 6.5771043465 12.6670038254 7.8795863349 
H 6.1110628592 12.3600706620 8.6967081055 
H 6.5630963545 13.6564046725 7.9056758074 
H 9.9391596032 12.3610068192 6.4721650936 
O 9.1207716323 11.7760408982 7.8600897563 
H 9.5658782562 12.1092807159 8.6777924765 
H 8.1927963970 12.1158787343 7.8897540227 
H 9.1114798272 10.0633256917 7.8829849123 
H 10.4091971784 14.4070040040 5.6855000751 
O 12.9240812429 11.8005826372 5.6827407897 
H 12.9452744933 10.8110692298 5.7100649405 
H 13.3966770964 12.1098529850 6.4947382466 
O 10.3926106880 12.6925005879 5.6588687459 
H 11.3208993435 12.3515890508 5.6957052301 
O 14.1896951693 12.6758178099 7.9053836814 
H 15.1305776140 12.3710908401 7.9007787091 
H 14.2189765143 13.6643254523 7.9097742790 
O 1.4842236198 1.9362690629 12.3029971914 
H 1.9610889046 1.5865071488 13.0960087501 
H 1.9666894798 1.5901245884 11.5129069442 
H 4.3851511613 1.5823342207 10.0985625035 
O 1.4689238967 4.6239579190 12.3421687671 
H 1.9412500647 4.9323871287 11.5305239626 
H 1.4964885437 3.6342371189 12.3169891977 
O 2.7902447688 1.0165377865 10.1208574233 
H 2.3154482992 1.3163180769 9.3063463948 
O 5.2970396166 4.6164907668 10.1510397545 
H 5.7644819947 4.9175169448 9.3319854763 
H 5.3036998304 3.6266407484 10.1227700289 
O 5.3128869678 1.9270590509 10.1296292827 
H 5.7599709405 1.5905164929 9.3147086619 
O 6.5550258112 0.9953676734 12.3293847849 
H 6.1120331724 1.3360545539 11.5132583878 
H 7.4841391866 1.3339363197 12.3040868559 
O 9.0978437957 1.8799059218 12.2815882991 
H 9.1115440974 2.8689796296 12.3076365369 
H 9.5669957303 1.5770157572 13.0983795605 
O 9.0808942281 4.5792020001 12.3201127787 
H 9.5616961109 4.9245940131 11.5284215317 
H 9.5680514552 4.9182372234 13.1121765682 
H 9.9237577003 1.3102007448 10.8908934095 
O 12.8861805909 4.5984221628 10.1120641829 
H 13.3741047697 4.9288967994 10.9059637258 
H 13.3813854068 4.9288871529 9.3221736823 
O 12.9460197846 1.8956709179 10.0967991685 
H 12.9117347721 2.8844397710 10.1018560336 
H 12.0070291446 1.5855266514 10.0950798965 
O 10.3927370093 1.0070314742 10.0747015882 
O 14.1961031019 1.0091118277 12.3259212504 
H 13.7529143864 1.3473424094 11.5100104981 
H 15.1234940589 1.3497832240 12.3017197817 
O 2.7349149322 5.4954160262 10.1122890861 
H 3.6754397174 5.1902912515 10.1211927552 
H 2.7645681432 6.4844956042 10.1093359914 
O 1.4927395479 9.1171658148 12.3021959559 
H 1.9344053378 8.7780168565 13.1197350331 
H 0.5664341870 8.7709009364 12.3217009849 
O 2.7464055822 8.1947464728 10.0894563861 
H 3.6776549194 8.5255660335 10.1252845825 
H 2.3011195319 8.5288091074 10.9063097309 
O 5.2866075859 9.0948546324 10.1331955759 
O 6.5480027471 5.5007609953 12.3518331536 
H 6.1102045221 5.1625060370 11.5302199197 
H 7.4774012822 5.1620697907 12.3287606468 
H 9.9179049347 5.1786134136 9.3162984197 
H 5.7660821179 8.7555776657 10.9286711670 
H 5.7735523702 8.7501619149 9.3452231123 
O 6.5432597366 8.1954687184 12.3440119254 
H 7.4854641877 8.4952877941 12.3395935498 
H 6.5669003859 7.2056104640 12.3389066330 
O 9.1085922109 9.0660575348 12.3457357557 
H 9.5693588166 8.7609194094 11.5242515244 
H 9.9178032919 8.5185800103 9.3152300451 
O 10.3570703680 5.5259357470 10.1314958553 
H 10.3649778623 7.2207344665 10.1059931853 
O 14.1752516768 5.5087254509 12.2984459470 
H 13.7293661579 5.1655260326 13.1118890795 
H 15.1034519512 5.1687363395 12.3239723637 
H 11.2869307305 5.1896778399 10.1089252538 
O 12.9428188126 9.0673050075 10.1176232746 
H 12.0014326669 8.7649308206 10.1137621806 
O 10.3779647357 8.2107755871 10.1344546195 
O 14.2141866450 8.2053035055 12.3348328865 
H 14.1956416306 7.2160644816 12.3194811988 
H 13.7357187003 8.5045505048 11.5229735983 
H 2.7792764269 14.4067770287 10.0996192592 
O 1.5174663617 11.8018887761 12.2839627573 
H 1.4870577946 10.8120117937 12.2982021945 
H 0.5774746800 12.1087383485 12.2920918606 
O 2.7652092772 12.6931076225 10.0689781264 
H 3.6910653464 12.3448327801 10.0974439650 
H 2.3146626035 12.3499290591 10.8802290683 
O 5.2972259300 11.7899431411 10.0872626539 
H 5.3116647598 10.8010805851 10.1211324426 
H 5.7660423840 12.1032404657 10.9000925540 
O 6.5904665360 12.6734678784 12.2849367881 
H 6.5755409490 13.6624911360 12.3115482870 
H 6.1206469691 12.3675192118 13.1004743875 
H 9.1178552589 10.0548185262 12.3154318922 
O 9.1293241506 11.7667279876 12.2793810851 
H 9.5729926045 12.1117545802 13.0936419060 
H 8.2023694967 12.1108066988 12.3043569983 
H 9.9308500793 12.3525645583 10.8882119360 
H 10.3826417836 14.3973162096 10.0979320950 
O 12.9105548031 11.7640549320 10.0954303379 
H 13.3977239211 12.1092450806 9.3071463916 
H 13.3909528137 12.1074992487 10.8877278541 
O 14.2186854998 12.6780328014 12.2831409806 
H 14.2043937396 13.6660492815 12.3030540601 
H 13.7437722168 12.3755375283 13.0959731837 
H 12.9177137684 10.0562990961 10.1062545385 
O 10.3731436480 12.6871853218 10.0692732527 
H 11.3024679880 12.3510932131 10.0964434079 
O 2.7662295889 1.0183865982 14.4829363646 
H 2.3011894223 1.3161398940 15.3028471225 
H 4.3750329600 1.5809797481 14.4988587316 
O 1.4525797016 4.5741776555 16.7293982677 
H 1.9379302967 4.9184010339 17.5200294842 
H 1.9350719299 4.9205606178 15.9392187295 
O 1.4840489348 1.8814996891 16.6970977911 
H 1.9485123301 1.5754460653 17.5141216987 
H 1.4907491898 2.8707755308 16.7294254878 
O 5.2727841821 4.6175021064 14.5426316564 
H 5.2795940567 3.6277166392 14.5153914578 
H 5.7437224213 4.9179241596 13.7245819312 
O 5.3020501437 1.9251613276 14.5274752416 
H 5.7489908426 1.5895970850 13.7112943124 
O 6.5563199832 1.0008996903 16.7380303188 
H 6.1120290776 1.3395177630 15.9229775994 
H 7.4832249969 1.3429737683 16.7137229966 
O 10.3594438320 0.9899069525 14.4899299806 
H 9.9177551929 1.3330476796 15.3054871099 
O 9.1184244020 4.6020358832 16.7444828863 
H 8.1883592901 4.9355397040 16.7205690812 
H 9.5573920667 4.9395046003 15.9245195791 
O 9.1025856903 1.8991561648 16.6969193768 
H 9.1189959362 2.8880396235 16.7195181165 
H 9.5779884478 1.5954158315 17.5089675232 
O 12.8970266986 4.6118600280 14.4946577963 
H 13.3755910589 4.9198854869 15.3041912799 
H 12.9161871999 3.6229772188 14.5221185608 
H 11.2887598187 1.3270602376 14.5181959680 
O 12.8978910641 1.9158532926 14.5217224349 
H 13.3900014476 1.5780229509 15.3110567033 
H 13.3872993107 1.5868773476 13.7289936926 
O 14.1898415295 1.0186931478 16.7026377560 
H 15.1311856067 1.3241925594 16.7057160893 
O 2.7348653824 5.5264290144 14.5463747001 
H 3.6636550219 5.1863254884 14.5210343004 
H 2.2948491745 5.1858884901 13.7284517236 
O 2.7241907751 8.2210241967 14.5272769129 
H 3.6663635542 8.5245243458 14.5214141877 
H 2.7504401212 7.2316451635 14.5256990674 
O 5.2610434380 9.1163398726 14.5187622847 
O 1.4869778120 9.0849621039 16.7515448680 
H 1.9538490521 8.7810598747 15.9328043993 
O 6.5748293747 5.5144624559 16.7175726456 
H 6.0919185711 5.1681986647 15.9266415115 
H 6.0964624973 5.1715797305 17.5119258482 
O 10.3436762729 5.4789762551 14.5139112283 
H 5.7428175977 8.7785823561 15.3138624166 
H 5.7506657713 8.7640408272 13.7340603650 
O 6.5400984365 8.2135984431 16.7163722482 
H 7.4850248587 8.5070162071 16.7129553048 
H 6.5576374036 7.2240816883 16.7129784190 
H 9.9357786099 8.5130537361 13.7186937600 
O 9.0849296371 9.0942041714 16.7158693142 
H 9.5694002442 8.7542899245 15.9230436745 
H 9.5777954167 8.7600315714 17.5047560406 
O 10.3727159057 8.1717691566 14.5387929509 
H 11.2848433956 5.1731391942 14.5143645392 
H 10.3751617220 6.4682191252 14.5122113470 
O 14.1707122097 5.4755458454 16.7088739037 
H 14.2024870273 6.4648540806 16.7144378386 
H 15.1116093742 5.1693092583 16.7152442814 
H 11.3022255875 8.5069068664 14.5182823715 
O 12.9111281761 9.1054121028 14.5169962675 
H 13.3986340877 8.7631957836 15.3059527150 
H 13.3933810357 8.7652121536 13.7232919658 
O 14.2008322258 8.1689415004 16.6980624968 
H 13.7595619356 8.5175328753 17.5123306469 
H 15.1275147131 8.5123216596 16.7206124628 
H 2.7598966715 14.4079341503 14.4991207748 
O 2.7557015958 12.7055694062 14.5067525499 
H 2.3106408743 12.3626495286 13.6934758963 
H 3.6825285509 12.3601293407 14.4852772746 
O 1.5161742263 11.7857744319 16.7286631691 
H 0.5842877934 12.1166837706 16.6933759988 
H 1.9578170391 12.1144262654 15.9079251315 
H 1.5007664640 10.0735999089 16.7253546300 
O 5.2908741708 11.8038049351 14.4796569952 
H 5.3013496098 10.8139658767 14.5085115631 
H 5.7565476748 12.1110066763 15.2960550374 
O 6.5783013424 12.6768020324 16.6909035500 
H 6.1155880334 12.3703110559 17.5094489999 
H 6.5677019042 13.6651459367 16.7179048393 
H 9.9179951678 12.3626246941 15.2916302689 
O 9.1310990321 11.7986979556 16.7021775554 
H 8.1911559104 12.1069221137 16.7067630441 
H 9.1001244314 10.8101220789 16.7087033814 
H 14.2195898702 14.4089016991 16.6995597182 
O 12.9488224090 11.8081214897 14.4997726670 
H 12.9256610415 10.8192767839 14.5088899993 
H 12.0069462483 12.1100996852 14.5056834525 
O 10.3905607999 12.6716489008 14.4792104447 
H 10.3691484745 13.6606939812 14.5057174067 
O 14.2431652822 12.6970397709 16.6926520937 
H 13.7516709511 12.3629050341 15.9022260952 
H 13.7563320087 12.3594558869 17.4849455413 

