&CONTROL
   calculation      = 'vc-relax'
   tstress          = .true.
   tprnfor          = .true.
   outdir           = './'
   pseudo_dir       = '/global/homes/p/ppiaggi/QuantumEspresso/pseudos'
/
&SYSTEM
   ecutwfc          = 150
   input_dft        = 'SCAN'
   ntyp             = 2
   nat              = 384
   ibrav            = 0
/
&ELECTRONS
   mixing_beta      = 0.5
   startingpot      = 'atomic'
   startingwfc      = 'atomic+random'
/
&IONS
/
&CELL
/

ATOMIC_SPECIES
O 15.999400004115753 O_ONCV_PBE_sr.upf
H 1.0079400002592869 H_ONCV_PBE_sr.upf

K_POINTS gamma

CELL_PARAMETERS angstrom
15.25007465680508 0.00000000000000 0.00000000000000
0.00000000000000 14.37688326869963 0.00000000000000
0.00000000000000 0.00000000000000 17.61677436560814

ATOMIC_POSITIONS angstrom
O 1.4820803892 1.9063518263 3.5188609943 
H 1.9498614181 1.6076716335 2.7002785524 
H 1.4964081111 2.8957315689 3.5011865356 
O 1.5054180225 4.6042387150 3.5204084195 
H 0.5749345156 4.9403549820 3.4985143260 
H 1.9450708662 4.9399879061 2.7003805409 
O 2.7388804629 1.0432178117 1.2858355472 
H 3.6805007843 1.3483047112 1.2875087854 
O 5.2807371225 4.6125659863 1.2869731615 
O 5.2854227745 1.9254598754 1.3018116942 
H 5.3030964998 3.6226952528 1.3058065188 
H 5.7510276863 4.9169556930 2.1010513797 
H 5.7716043840 1.5822044286 0.5102350822 
H 5.7615529692 1.5745326359 2.0946156388 
O 6.5833175977 1.0053678259 3.4845483100 
H 6.1166521204 1.3068754177 4.3029073613 
O 9.1251401599 1.9045684982 3.4595003266 
H 9.5703180757 1.5722935606 4.2777842125 
H 8.1972162078 1.5634124256 3.4920339174 
O 9.1040251756 4.6061065560 3.5137978969 
H 9.1158811818 3.6175865849 3.4801499421 
H 9.5713225681 4.9187052418 2.6999872580 
H 9.9228011816 1.3130449136 2.0875114094 
O 12.9554039610 4.6181108683 1.3297799220 
H 12.9274592156 3.6281187666 1.3190096020 
H 12.0138331505 4.9213427900 1.3194968035 
O 12.9340413705 1.9298717037 1.3162788897 
H 12.0082323800 1.5830199457 1.2916836620 
H 13.3796733129 1.5905873158 0.5005969216 
O 10.3983549723 1.0155267499 1.2715648067 
O 14.1936647587 1.0104891667 3.5290031973 
H 15.1214240765 1.3522088076 3.4999228383 
H 13.7477829090 1.3457523699 2.7132094247 
O 2.7436903180 5.5194193718 1.3077807121 
H 3.6697873665 5.1726053969 1.2871041734 
H 2.2958806048 5.1710442924 0.4965229792 
O 1.4801870627 9.1107622710 3.5013567197 
H 1.9564038609 8.7611507499 4.2945373535 
H 1.9605000344 8.7610858026 2.7105942910 
H 4.3842635955 8.7632102669 1.2955962258 
O 2.7796473340 8.2041526502 1.3177841247 
H 2.3075550260 8.5149182375 0.5069728226 
H 2.7596958800 7.2139961342 1.2879339141 
O 6.5415946694 5.4796904768 3.5238770521 
H 7.4812487544 5.1721539404 3.5149905281 
H 6.5755717695 6.4690547956 3.5203489038 
H 9.9275919411 5.1820523325 0.5029940038 
O 5.3104782587 9.1097505352 1.3209951995 
H 5.7573688028 8.7723849015 0.5065851751 
O 6.5608837357 8.1748016634 3.5258625578 
H 7.4877719370 8.5201121780 3.4994372482 
H 6.1158325004 8.5140215932 2.7108355868 
O 9.0955149771 9.0818253017 3.4749927294 
H 9.5747896225 8.7772368231 4.2853065053 
H 9.9181806628 8.5255744143 2.0883297610 
O 10.3654480163 8.1831878607 1.2751861418 
O 14.2261589875 5.5210948893 3.5163748432 
H 13.7392247026 5.1766555355 2.7260434640 
H 13.7433274707 5.1791345384 4.3083115001 
O 10.3999457236 5.4863922570 1.3166227395 
H 10.3819236029 6.4754713361 1.2959285096 
O 12.8983356857 9.0898513203 1.2894567959 
H 13.3762135586 8.7855533527 2.0999969365 
H 11.2917652185 8.5297166824 1.3030367858 
O 14.1814697688 8.2244262747 3.5069514316 
H 15.1238022521 8.5258438681 3.5026138601 
H 14.2085511310 7.2352172111 3.5097122548 
H 2.7714629350 14.4301342670 1.2898457075 
O 1.5247327754 11.8085475129 3.4861084586 
H 0.5842706823 12.1130414982 3.4954070088 
H 1.4995709686 10.8195797400 3.4917961756 
O 2.7649595251 12.7295413715 1.2753509609 
H 3.6922687567 12.3850637364 1.3003209121 
H 2.3205529499 12.3822455539 2.0878034627 
H 6.5703137302 14.3926927125 3.5075371961 
O 5.2956666116 11.8098127751 1.2889839012 
H 5.2982332747 10.8203218863 1.3091654391 
H 5.7653846354 12.1044774403 2.1087010147 
O 6.5642859566 12.6879297045 3.4929328051 
H 7.4951430435 12.3522482907 3.5195839335 
H 6.1226816326 12.3474489243 4.3096470590 
H 9.1122359462 10.0710460138 3.5020009924 
O 9.0929365799 11.7795302197 3.5123723821 
H 9.5776493385 12.1123683805 2.7174127969 
H 9.5856551892 12.1189638355 4.3016078959 
H 9.9333127229 12.3484858642 0.4993968918 
H 10.3870026302 14.4035960984 1.2892160715 
O 12.9176991400 11.7841267473 1.2968118950 
H 13.4000753804 12.1273806715 2.0890144322 
H 13.3996841792 12.1262755324 0.5039731591 
O 14.2184133244 12.6835088304 3.4816481036 
H 14.2085778215 13.6720255468 3.5083060731 
H 13.7482648448 12.3804211694 4.2974146096 
H 12.9221912244 10.0791181838 1.3084978045 
O 10.3749797248 12.6882260701 1.3166365760 
H 11.3055316908 12.3548424679 1.2932127039 
O 2.7796775603 0.9819125318 5.7117668479 
H 2.3053357073 1.3323341951 4.9184108901 
H 2.2936620746 1.3304632719 6.4997900135 
H 4.3849268179 1.5664452753 5.7175087221 
O 1.4996242097 4.5830299227 7.9387164660 
H 1.9433921558 4.9134810691 7.1181963464 
H 0.5696393346 4.9193186412 7.9091202945 
O 1.5062907238 1.8925752066 7.9022806612 
H 1.4794637556 2.8828628495 7.9097991452 
H 0.5641493805 1.5898445015 7.9013795394 
O 5.2766919290 4.5752820964 5.7173295773 
H 5.7591767734 4.9206555509 6.5078674203 
H 5.7598059759 4.9209601892 4.9258174780 
O 5.3267788840 1.8689827389 5.7166551809 
H 5.2994322656 2.8574906564 5.7158891630 
O 6.5909751918 1.0039214646 7.9437732879 
H 6.1184316299 1.3068505815 7.1293256035 
H 9.9345874704 1.3235137058 6.4938146943 
O 9.1088478655 4.6039101339 7.9268795338 
H 9.1229048917 3.6154290729 7.9016035895 
H 9.5749853995 4.9117166192 7.1107471681 
O 9.1376415652 1.9015962907 7.8903077120 
H 9.5854185762 1.5594761786 8.7024610762 
H 8.2103887218 1.5595574334 7.9185664681 
O 10.3755613727 0.9965596342 5.6711121222 
O 12.9482162279 4.6182123556 5.7146574327 
H 12.0060812483 4.9201980965 5.7069692277 
H 12.9200745022 3.6285166970 5.7112923805 
H 11.3055510628 1.3333624124 5.7004366491 
O 12.8996352181 1.9220346771 5.7080029848 
H 13.3908143636 1.5881931514 4.9171602174 
H 13.3806458160 1.5783019310 6.5015745062 
O 14.2013153004 1.0165503522 7.8805751015 
H 13.7357415743 1.3169059622 8.7007650538 
O 2.7440672118 5.4900632275 5.7345859445 
H 2.3041043913 5.1635459288 4.9107357650 
H 3.6744388893 5.1546226330 5.7096786029 
O 2.7728412576 8.1969300741 5.6828090005 
H 2.3031326695 8.4982285898 6.5011527047 
H 2.7610707976 7.2081722690 5.7064734840 
H 4.3827739540 8.7560650958 5.7060421073 
O 1.5133885843 9.0934162134 7.8736821261 
H 0.5847642427 8.7517426193 7.8965485695 
H 1.9517587300 8.7534738231 8.6933551909 
O 6.5545423625 5.4835592106 7.9175404481 
H 7.4936320347 5.1734189041 7.9109568963 
H 6.5891649383 6.4719419360 7.9163802729 
H 9.9238080438 5.1685002030 4.9004223382 
O 5.3113272126 9.0964223995 5.7283113994 
H 5.7528863983 8.7578526329 4.9104342743 
O 6.6144059669 8.1904453445 7.9175882318 
H 6.1250606035 8.5313326501 8.7071590727 
H 6.1252463465 8.5223085877 7.1251210817 
H 9.9342543200 8.5181213135 6.4837006100 
O 9.1539825257 9.0729137075 7.8968912693 
H 8.2090368548 8.7794552611 7.9044169081 
O 10.3770937953 8.1791108321 5.6664747544 
O 10.3885126346 5.4780073395 5.7172243918 
H 10.3789300622 6.4666619290 5.6879175218 
O 14.2212914435 5.5024025886 7.9082446247 
H 13.7296900473 5.1672069636 7.1173811259 
H 13.7370197112 5.1630139689 8.7004040045 
H 11.3025190974 8.5257497515 5.6910098440 
O 12.9128050738 9.1293885930 5.7003387582 
H 13.3996483289 8.7861855236 4.9105561361 
H 13.3924775131 8.7809386995 6.4912921727 
O 14.2253241766 8.1997427128 7.8774335988 
H 13.7563046246 8.5030280798 8.6950577809 
H 14.2088027851 7.2105492609 7.9012183027 
H 4.3947589573 12.0980614756 5.7140724000 
O 2.7936805135 12.6670608128 5.7180650364 
H 2.3218077872 12.3621729678 4.9045436924 
H 2.7677655023 13.6562051982 5.6983859407 
O 1.4993282553 11.7934979924 7.9217702408 
H 1.5074206650 10.8046481933 7.8949407343 
H 1.9685629555 12.0980204803 7.1063652394 
H 6.5765221154 14.3912492882 7.9189427410 
O 5.3348305752 11.7883565058 5.7249449031 
H 5.3030281033 10.7990269224 5.7178745733 
O 6.5704312040 12.6877890143 7.9347315688 
H 6.1213763589 12.3456831306 7.1216410070 
H 7.5000038768 12.3520928769 7.9020967541 
O 9.1093987667 11.7745987387 7.8939646931 
H 9.5891010279 12.1195127290 7.1011958555 
H 9.5973348163 12.1116124981 8.6852847017 
H 9.1365395369 10.0620346095 7.8970282455 
O 10.3714794578 12.6796320560 5.6889555679 
H 14.2006089602 14.4045250515 7.9063711348 
O 12.9199698729 11.8203374691 5.6848524602 
H 12.9366417070 10.8305740164 5.7072627034 
H 13.3928090101 12.1226471298 6.4996432712 
H 11.3148907538 12.3782195781 5.6951826075 
H 10.3957787873 13.6693902233 5.6893049456 
O 14.2020071902 12.6986802735 7.8881851150 
H 15.1291069696 12.3556156602 7.9067548457 
H 13.7596750956 12.3507568265 8.7021762963 
O 1.4643456913 1.8758330013 12.2950863507 
H 1.9388124504 1.5721008402 13.1080639385 
H 1.4764360920 2.8651398156 12.3191210970 
H 4.3919774675 1.5744280910 10.1015861255 
O 1.5005395549 4.5749748444 12.3430992339 
H 1.9493289335 4.9132277439 11.5286278340 
H 0.5746080917 4.9213504600 12.3128096881 
O 2.7719658834 0.9926814156 10.0953009696 
H 2.2895553178 1.3375098401 9.3028786191 
H 2.2855441447 1.3294415179 10.8871646211 
O 5.2901920973 4.6049171268 10.1384083523 
H 5.7622255501 4.9145824464 9.3262601597 
H 5.3112133433 3.6160372766 10.1114779164 
O 5.3219586142 1.9070488527 10.1331488863 
H 5.7673752223 1.5629795542 9.3189252233 
O 6.6080033416 0.9863611860 12.3205939601 
H 6.1195813203 1.3271730807 13.1098189130 
H 6.1213737504 1.3215877419 11.5274994573 
O 9.1469662031 1.8823932015 12.3179200069 
H 8.2048762503 1.5799712679 12.3162249496 
H 9.1195508970 2.8718286797 12.3170314849 
O 9.1182195428 4.5778832363 12.3484733288 
H 8.1873251614 4.9117652269 12.3313621798 
H 9.5514865390 4.9214448435 11.5268949940 
H 9.9434013653 1.3084191701 10.9098737591 
O 10.3892996098 0.9663465294 10.0964351910 
O 12.9384923288 4.5619156853 10.0981225874 
H 12.0105759693 4.8995401465 10.1254647616 
H 13.3838535164 4.9123625672 10.9096820596 
O 12.9171232741 1.8701301721 10.0881895135 
H 13.3871094024 1.5636792382 10.9038628714 
H 12.9299845522 2.8598574130 10.1182847135 
H 11.3165549535 1.3125425734 10.1211267797 
O 14.1818531335 0.9788257464 12.2905644689 
H 13.7384557788 1.3311745143 13.1019339177 
H 15.1111119581 1.3198093999 12.3153253534 
O 2.7504756952 5.5019290912 10.1442044672 
H 2.3045630535 5.1656492698 9.3279771709 
H 3.6782863907 5.1607652966 10.1159382370 
O 1.4772495178 9.0732786503 12.2904530121 
H 1.9482062662 8.7712276062 13.1068261639 
H 4.3897662959 8.7794372460 10.1056592326 
O 2.7685095547 8.2059067709 10.0841428463 
H 2.2963980001 8.5094856264 10.8987138948 
H 2.7587239879 7.2171167295 10.1118289215 
O 6.5706862753 5.4744762515 12.3520837525 
H 6.1076932533 5.1667650562 11.5335510563 
H 6.5684130168 6.4642157462 12.3154401736 
H 9.9186778588 5.1628372348 9.3312821338 
O 5.3302193317 9.0839323428 10.1114554644 
O 6.5722232925 8.1637096677 12.3276023773 
H 7.5028345946 8.4995990948 12.3009629228 
H 6.1279654608 8.5116532026 11.5156725058 
O 9.1120334992 9.0499786574 12.3158533215 
H 9.5825467510 8.7470557828 11.5003127876 
H 9.9434464631 8.5029821403 9.2975919138 
O 10.3879195726 8.1565318584 10.1109989247 
O 14.2094561811 5.4866219342 12.2762213108 
H 14.2021728758 6.4761063628 12.2926406955 
H 13.7436679526 5.1960010846 13.0994057758 
O 10.3783702853 5.4674301087 10.1522582759 
H 10.3784599286 6.4570526075 10.1156432727 
O 12.9299892179 9.0642259048 10.0719769941 
H 13.3970170528 8.7633464092 10.8911071607 
H 11.3154355428 8.4997437137 10.0872661660 
O 14.1913590126 8.1849634585 12.2781868790 
H 13.7479022596 8.5187121863 13.0969021978 
H 15.1208903794 8.5243757199 12.3082897861 
H 1.4970174131 10.0626902347 12.3099981199 
H 4.3908352088 12.1261407327 10.1185227513 
O 1.5244241141 11.7713133568 12.3249537733 
H 0.5968547793 12.1125927761 12.3022348388 
H 1.9675156880 12.1147100539 11.5097618588 
O 2.7815964998 12.6780818986 10.1263731228 
H 2.7601098374 13.6675750970 10.0972493995 
H 2.3170125636 12.3659579025 9.3105776494 
O 5.3188087698 11.7828291408 10.1485537984 
H 5.7629750711 12.1145889920 9.3292914817 
O 6.6119836094 12.6627475088 12.3395005295 
H 6.5962619817 13.6516904518 12.3231140393 
H 6.1301683876 12.3660367337 11.5276947083 
H 5.3025173707 10.0731308582 10.1190320879 
H 9.1292847209 10.0390601376 12.2946573153 
O 9.1510993262 11.7532329088 12.2849876563 
H 8.2251596655 12.1007375342 12.3086123646 
H 9.5953891936 12.0982966671 13.0987861337 
H 9.9550696833 12.3461698041 10.8990841119 
O 12.9594577695 11.7559178064 10.0822385919 
H 12.0305332997 12.0964690054 10.1103836586 
H 13.4036120895 12.0970267437 10.8986570269 
O 14.2247796043 12.6632003909 12.2771606484 
H 13.7519734962 12.3537459082 13.0900904557 
H 14.1991693611 13.6524020707 12.3020907653 
H 12.9421894868 10.0538193079 10.0962809896 
O 10.4230513784 12.6521614976 10.0825567975 
H 10.4112992369 13.6421146988 10.1134048144 
H 4.3781689320 4.9226963128 14.5244496133 
O 2.7350061110 1.0094946356 14.5146050855 
H 3.6744265842 1.3208580937 14.5210929974 
O 1.4675113683 4.6053159879 16.7429830852 
H 1.9390801841 4.9095517382 15.9288261882 
H 1.4820075338 3.6157125067 16.7180972809 
O 1.4591687944 1.9135913177 16.7097613863 
H 1.9517218595 1.5774710128 17.5006096569 
H 1.9425331464 1.5698899589 15.9175654274 
O 5.2869277466 1.8863575652 14.5022125229 
O 5.3076357157 4.5845847814 14.5481601965 
H 5.7484807240 4.9270761583 13.7309288310 
H 5.2978587843 2.8754144492 14.5230728132 
H 5.7587476453 1.5874661807 15.3184446691 
O 6.5529075448 1.0325411835 16.7279938848 
H 7.4955330117 1.3328438950 16.7240573130 
H 9.9376966501 1.3300510422 13.7189337286 
O 9.1310100447 4.6176817243 16.7148866478 
H 8.1876420261 4.9178909022 16.7130521010 
H 9.1089803553 3.6283333507 16.7169818224 
O 9.0972824261 1.9171470970 16.7168323787 
H 9.5806484313 1.5753753090 15.9249517278 
H 9.5819391572 1.5740689464 17.5089262081 
O 10.3876012172 0.9862670522 14.5303595304 
O 12.9525679546 4.6165161873 14.4942454702 
H 13.3903214361 4.9521847763 15.3146597513 
H 12.0179662881 4.9416036122 14.5249815954 
H 11.3104051780 1.3387358715 14.5064026661 
O 12.9265432618 1.9130079504 14.4821790040 
H 12.9452186746 2.9018309535 14.5045050526 
H 13.3941911212 1.6091783424 15.2998996191 
O 14.1683534782 1.0361025206 16.7121762022 
H 15.1127100286 1.3335681642 16.7124618849 
O 2.7671654234 5.4770247624 14.5393135394 
H 2.3000507329 5.1722115169 13.7215869706 
H 2.7553654778 6.4653983118 14.5141910663 
O 2.7469031057 8.1856804872 14.4933720053 
H 2.3017430252 8.5319636089 15.3055946328 
H 3.6766255922 8.5223475154 14.5177072267 
O 1.5080723288 9.0920304060 16.7120005334 
H 0.5667570123 8.7887647721 16.7138337044 
O 5.2853468579 9.0945284523 14.5167965154 
O 6.5924010171 5.5051691558 16.7183621961 
H 6.1084048724 5.1675228551 17.5120622943 
H 6.1040555410 5.1648820835 15.9268094636 
H 9.9234281117 5.1663163880 15.3173421520 
H 9.9255532554 5.1641499399 13.7336963432 
H 5.7719591661 8.7541974292 13.7262480102 
H 5.7724842450 8.7584018664 15.3104380074 
O 6.5513684376 8.2104510910 16.7119373304 
H 6.5730528340 7.2214901003 16.7146097275 
H 7.4956272405 8.5097057220 16.7112876541 
H 9.9325329507 8.4882680252 13.7142707584 
O 9.0835227315 9.0997052434 16.7082887213 
H 9.5691390071 8.7569068248 15.9176792501 
H 9.5692936325 8.7630598911 17.5020909571 
O 10.4135144397 5.5010699949 14.5254005855 
O 14.1896192371 5.5329238887 16.7216159247 
H 13.7430750455 5.1873496064 17.5329337893 
H 15.1129916302 5.1784441026 16.7403099243 
O 10.3992706198 8.1947159022 14.5348215948 
H 10.3911970975 7.2051156152 14.5203055370 
O 12.9440776436 9.1036161357 14.4942307498 
H 13.3852408301 8.7629505059 15.3122000238 
H 12.0171159315 8.7604662553 14.5166240261 
O 14.2016800444 8.2188885997 16.6959285089 
H 13.7311205968 8.5273032426 17.5088791095 
H 14.1948504421 7.2290301233 16.7315774942 
H 2.7722837482 14.3972352697 14.5201577794 
O 2.7739237762 12.6922637370 14.5340969517 
H 3.7025545020 12.3508584582 14.5138117773 
H 2.3345304366 12.3548722220 13.7147194125 
O 1.4698252676 11.8000145471 16.7127551368 
H 1.9592351241 12.1398958966 17.5016010373 
H 1.9613185227 12.1251348868 15.9182318646 
H 1.4824176298 10.0804156941 16.7175311850 
H 6.5775012151 14.4199706843 16.7281160126 
O 5.3059667686 11.7905050547 14.5398084491 
H 5.7798599106 12.0929872286 13.7255942077 
H 5.3157470896 10.8010902555 14.5151624330 
O 6.6013861242 12.7118272926 16.7244624065 
H 6.1212236651 12.3664580355 17.5169027842 
H 6.1232284938 12.3614074124 15.9334406179 
H 9.9356566456 12.3633721544 15.2989303871 
O 9.1396631816 11.8038240007 16.7099391876 
H 9.1076043677 10.8152376172 16.7055615227 
H 8.1995866879 12.1125919732 16.7148506155 
H 14.1914583298 14.4235234921 16.7064048510 
O 12.9696458472 11.7957758753 14.4953244165 
H 12.9394545879 10.8065087471 14.5038374707 
H 12.0289215601 12.1009219827 14.4992279104 
O 10.4119418156 12.6647740371 14.4865609378 
H 10.3966969097 13.6538928015 14.5065607364 
O 14.1889652563 12.7182773726 16.7238093577 
H 15.1211924865 12.3876081034 16.7039190334 
H 13.7541856303 12.3705976190 15.9066246904 

