&CONTROL
   calculation      = 'vc-relax'
   tstress          = .true.
   tprnfor          = .true.
   outdir           = './'
   pseudo_dir       = '/global/homes/p/ppiaggi/QuantumEspresso/pseudos'
/
&SYSTEM
   ecutwfc          = 150
   input_dft        = 'SCAN'
   ntyp             = 2
   nat              = 384
   ibrav            = 0
/
&ELECTRONS
   mixing_beta      = 0.5
   startingpot      = 'atomic'
   startingwfc      = 'atomic+random'
/
&IONS
/
&CELL
/

ATOMIC_SPECIES
O 15.999400004115753 O_ONCV_PBE_sr.upf
H 1.0079400002592869 H_ONCV_PBE_sr.upf

K_POINTS gamma

CELL_PARAMETERS angstrom
15.25557261361515 0.00000000000000 0.00000000000000
0.00000000000000 14.37625219420150 0.00000000000000
0.00000000000000 0.00000000000000 17.61323042108295

ATOMIC_POSITIONS angstrom
O 1.4569709814 1.8874197909 3.4727536497 
H 1.9331002285 1.5878207466 4.2879569758 
H 1.4696984047 2.8773510999 3.4942030694 
O 1.4529485481 4.5814012384 3.4971806782 
H 1.9445463212 4.9239673602 2.7096253342 
H 1.9411332599 4.9092185908 4.2927066231 
O 2.7313190424 0.9958670234 1.2742462672 
H 2.2859372384 1.3358392134 2.0899261869 
H 3.6572034449 1.3391538997 1.3009253359 
O 5.2798817376 1.9380445048 1.3012696630 
O 5.2882422871 4.6260640274 1.2936259696 
H 5.7604731627 4.9252251049 2.1083903558 
H 5.3094174869 3.6360706035 1.3094780481 
H 5.7654137778 1.5912770332 0.5128846790 
H 5.7586362903 1.5882839653 2.0927860682 
O 6.5844830453 1.0109978307 3.4744661768 
H 6.1097453654 1.3104049214 4.2882296229 
O 9.1233011837 1.9145239411 3.5032838700 
H 9.5707985254 1.5691509316 2.6912515455 
H 8.1970067431 1.5684493423 3.4807747009 
O 9.1188426027 4.6010609343 3.5368704212 
H 9.5829599720 4.9134919380 2.7215263746 
H 9.1242223166 3.6115588771 3.4965272960 
O 10.3662009663 1.0100499650 1.2901915435 
O 12.9392907039 4.5709172160 1.2852260534 
H 12.0138510840 4.9196304208 1.3063206365 
H 13.3837008174 4.9121736984 2.1005379495 
O 12.9246760323 1.8775494999 1.2573466689 
H 13.3939373070 1.5729366734 2.0735199709 
H 12.9363405610 2.8671275814 1.2873959155 
H 11.3077644331 1.3124312017 1.2873890340 
O 14.1832568561 0.9822609037 3.4653558520 
H 13.7365176407 1.3278402368 4.2775088741 
H 15.1108909281 1.3272571621 3.4928463245 
O 2.7358915127 5.4833890803 1.3101993060 
H 2.7620900367 6.4720831430 1.3085036324 
H 3.6783084181 5.1813903504 1.3145371595 
O 1.4693434783 9.0631115341 3.4872864805 
H 1.9425110810 8.7542145347 4.2990068552 
H 4.4063664265 8.7700205332 1.2960128781 
O 2.7907064063 8.1871474437 1.3008397089 
H 2.3096083035 8.5280475561 0.5075250955 
H 2.2999799328 8.5225486497 2.0907161015 
O 6.5550292951 5.4795229091 3.5365649445 
H 6.5919560359 6.4684147621 3.5256403447 
H 7.4938156380 5.1693206878 3.5296563308 
H 9.9324553464 5.1869272955 0.5123197480 
O 5.3357065454 9.1054955250 1.3191103317 
H 5.7743531216 8.7691031778 0.4977973693 
O 6.5819024699 8.1758613509 3.5197268830 
H 6.1415327761 8.5171137002 2.7021257719 
H 7.5080310485 8.5219935723 3.5015630915 
O 9.1245174057 9.0891568661 3.4884691903 
H 9.5882099287 8.7817045093 4.3067831319 
H 9.9414601294 8.5248167329 2.1000216583 
H 9.9303161399 8.5175624755 0.5166443314 
O 14.1704949785 5.4695633868 3.5063036059 
H 14.1968305610 6.4592408495 3.5075352191 
H 15.1135048230 5.1691530238 3.5053347611 
O 10.4075647315 5.4850515027 1.3268450543 
H 10.3918139368 6.4744758760 1.3089129030 
O 12.9629534394 9.0801235099 1.2605887023 
H 13.3999290205 8.7437815511 2.0815141125 
H 12.0313658689 8.7489611788 1.2888699964 
O 10.4188825678 8.1777177939 1.3066473073 
O 14.1920879705 8.1612831651 3.4822175755 
H 15.1214064317 8.5010306330 3.5088604688 
H 13.7482367095 8.5062477943 4.2956624613 
H 1.4815345852 10.0518815417 3.5184060420 
H 4.3873870192 12.0985308025 1.3165846693 
O 1.4923956765 11.7632134412 3.5401704123 
H 0.5639749333 12.1024443753 3.5163469102 
H 1.9314815932 12.1044225846 2.7218941338 
O 2.7585985525 12.6626257460 1.3374426087 
H 2.7443195751 13.6508093851 1.3092295530 
H 2.2987386996 12.3565506843 0.5159396006 
H 6.5738783510 14.3977064741 3.4952639222 
O 5.3297297386 11.7990155350 1.3172433276 
H 5.3070549037 10.8090939545 1.3087343838 
O 6.6089888264 12.6935433201 3.5000118151 
H 6.1252075517 12.3576976453 4.2941422650 
H 6.1172444268 12.3514090677 2.7119644997 
H 9.1367765255 10.0773346596 3.5159515691 
O 9.1489395051 11.7961556510 3.5414006296 
H 9.5918452293 12.1269611825 2.7213688837 
H 8.2169790028 12.1259837888 3.5072435327 
H 9.9386168583 12.3531751676 0.5065971258 
H 10.3930078411 14.3965615425 1.2915955088 
O 12.9224218638 11.7898063838 1.3059703925 
H 12.9436307733 10.8018019911 1.2782598221 
H 13.3968824053 12.1019224440 0.4958104625 
O 14.2007099401 12.6603700459 3.5258843864 
H 14.1923077230 13.6498400793 3.4956328067 
H 13.7377346034 12.3552622509 2.7070390225 
O 10.3880277639 12.6972157676 1.3187377225 
H 11.3144078050 12.3516691518 1.2890810579 
O 2.7364891122 0.9992137621 5.6650858876 
H 2.2959163183 1.3403931524 6.4830919293 
H 3.6666682478 1.3389354827 5.6905720200 
O 5.2724278573 1.8800050046 5.6776249026 
O 1.4965060791 4.5709908872 7.8976448469 
H 1.9423502586 4.9112835704 8.7118232505 
H 0.5692688283 4.9162812723 7.9248276224 
O 1.4844372031 1.8877819446 7.8723457650 
H 1.9565305313 1.5775400609 8.6845410438 
H 1.4969679356 2.8778028208 7.9054776441 
O 5.2800842386 4.5697281514 5.7201325563 
H 5.7710996187 4.9197692189 4.9355355335 
H 5.7558066644 4.9091084599 6.5183024383 
H 5.2920892601 2.8694132482 5.7077333899 
H 5.7404634788 1.5709549865 6.4924100554 
O 6.5349708294 1.0179630862 7.9041472766 
H 7.4784326355 1.3166467642 7.9063943829 
H 9.9349286488 1.3355330494 4.9007518915 
O 9.0945518843 4.6089126011 7.9344120879 
H 9.5672969287 4.9105563855 7.1181526525 
H 9.1057850988 3.6205138577 7.9109853837 
O 9.0780071061 1.9031346612 7.9081012208 
H 9.5682787702 1.5749153806 7.1145884648 
H 9.5682260209 1.5630185955 8.6971332896 
O 10.3807543218 1.0055204913 5.7188183130 
O 12.9172385094 4.5745531772 5.7073982212 
H 13.4030295941 4.9160841160 6.4975186331 
H 13.3968839675 4.9185528831 4.9125856941 
H 11.3096562431 1.3469001432 5.6886812354 
O 12.9150443382 1.8912515238 5.6659125012 
H 12.9371680565 2.8814632263 5.6910401824 
H 13.3913014105 1.5845420446 6.4769701768 
O 14.1802735164 1.0279702893 7.8879151972 
H 15.1218607713 1.3309819663 7.8882122124 
O 2.7451765639 5.4854741447 5.6858098747 
H 3.6757651561 5.1505118761 5.7129090179 
H 2.3048255144 5.1500932149 6.5049949679 
O 2.7388465235 8.1871819615 5.7041066116 
H 3.6801634515 8.4889401136 5.6998029528 
H 2.7627280403 7.1985512078 5.7053483618 
O 1.4835487056 9.0780136562 7.9227943254 
H 1.9525870088 8.7664658593 7.1094078630 
O 5.2999114403 9.0576422619 5.7156450156 
O 6.5404596847 5.4750237855 7.9247059348 
H 6.5717233945 6.4644225318 7.9100281919 
H 7.4810153224 5.1681648330 7.9158952263 
H 9.9314933566 5.1514208786 4.9215065317 
H 5.7767252174 8.7594759426 4.9011574948 
O 6.5568924870 8.1649256197 7.9229406945 
H 6.1183700385 8.5049648200 7.1036919467 
H 7.4834308374 8.5122868086 7.9048309839 
H 9.9247443501 8.5137407256 6.5042957521 
O 9.0925042692 9.0778802702 7.8916078983 
H 9.5676781081 8.7797607807 8.7059043212 
O 10.3699024497 5.4962837180 5.7389122253 
H 11.2985881646 5.1593150074 5.7168604149 
O 14.2257037682 5.4797165275 7.8943530363 
H 13.7478387512 5.1897353814 8.7104218673 
H 14.2174372896 6.4692052442 7.9090212842 
O 10.3949092631 8.2057679961 5.6904568729 
H 10.3778568224 7.2179042983 5.7175241606 
O 12.9589717741 9.0735392311 5.7067746453 
H 12.0181859986 8.7702639149 5.7090878965 
O 14.2047382750 8.1819633344 7.9316500718 
H 13.7582595202 8.5226495871 7.1178284859 
H 15.1323024363 8.5251614592 7.9045972494 
H 4.3898881972 12.1028547949 5.7055977246 
O 2.7736444071 12.6686501674 5.7239286556 
H 2.2968844394 12.3643506241 4.9114784165 
H 2.7579562294 13.6573873953 5.6989329927 
O 1.5173259377 11.7666365194 7.9173683599 
H 0.5882713271 12.1047346484 7.8970001083 
H 1.9567386300 12.1096244242 7.0993024482 
H 1.5013295237 10.0678268787 7.8937055953 
H 6.5600769588 14.4048567780 7.9144302474 
O 5.3178824632 11.7626136949 5.6871454746 
H 5.7561572608 12.1036627500 6.5048479808 
H 5.3125720938 10.0467324296 5.6975957004 
O 6.5533461144 12.6967842726 7.8971888945 
H 7.4836434658 12.3611941555 7.9214579217 
H 6.1164914799 12.3539651470 8.7154959175 
H 9.9393656100 12.3834288109 4.9209201451 
O 9.0867880587 11.7709662150 7.9150128064 
H 9.5733564559 12.1161023423 7.1264593227 
H 9.5724482592 12.1107523929 8.7077994061 
H 9.1058981036 10.0676849550 7.9113864742 
H 14.2092093029 14.4158448287 7.8959906025 
O 12.9391606095 11.7628713233 5.7272402177 
H 13.3746521075 12.1048884990 4.9074498597 
H 12.0114110665 12.1068417036 5.7125868603 
O 10.4057924839 12.6801316368 5.7425948316 
H 10.4014290338 13.6690356366 5.7170434459 
H 12.9316914965 10.0634121834 5.7059672252 
O 14.2360578443 12.6989236064 7.9026221141 
H 13.7515063934 12.3555218222 7.1121057459 
H 13.7515720014 12.3573080878 8.6936805365 
O 1.4978391098 1.9117689345 12.3172345121 
H 1.9426759216 1.5749648008 11.5004327544 
H 0.5691741312 1.5741640258 12.2898454294 
O 1.4733755416 4.6049024303 12.3458901766 
H 1.9443695859 4.9128909400 11.5320822521 
H 1.4873101535 3.6157476587 12.3143725663 
O 2.7436746547 1.0162670062 10.0985275654 
H 3.6837619233 1.3256212566 10.1016881450 
O 5.2722730408 1.9300442714 10.1073339630 
O 5.2777599729 4.6232717068 10.1460576651 
H 5.7537968887 4.9278769261 9.3339418065 
H 5.2957586820 3.6341615981 10.1220432001 
H 5.7536394702 1.5894258692 9.3129394882 
H 5.7624408938 1.5835053853 10.8937501471 
O 6.5540401791 1.0193580111 12.2967232926 
H 7.4958340662 1.3198828512 12.2938484650 
O 9.1233769635 1.8843214264 12.2794389016 
H 9.5851442629 1.5823142120 13.1010127593 
H 9.1314439664 2.8728492954 12.3073420893 
O 9.1348278113 4.5889262487 12.3431720159 
H 8.2066838716 4.9276996989 12.3285220408 
H 9.5684298827 4.9324112230 11.5230130872 
H 9.9442629365 1.3261803020 10.9031201894 
O 10.3806113273 0.9817964227 10.0840167973 
O 12.9371129355 4.6110215994 10.0954416529 
H 13.3804182989 4.9480682234 10.9124415387 
H 12.0074425463 4.9469496390 10.1224816801 
O 12.9157580687 1.9042824457 10.1055331140 
H 13.3907905054 1.6051849886 9.2914259126 
H 12.9292982188 2.8927657127 10.0932740579 
H 11.3064333901 1.3288509759 10.0957109592 
O 14.2148154857 0.9912493671 12.2967548413 
H 13.7326768252 1.3335445191 11.5050590841 
H 13.7307181250 1.3347073846 13.0883769355 
O 2.7307381316 5.4793365430 10.1265513132 
H 3.6738230301 5.1778271040 10.1240115010 
H 2.7548432061 6.4674447107 10.1189872977 
O 1.4878577600 9.1207413071 12.2951941404 
H 0.5593144543 8.7784699962 12.3217274765 
H 1.9344217411 8.7755145597 13.1063930137 
H 4.3863326756 8.7536857003 10.1165336662 
O 2.7760013257 8.1857316375 10.1140404986 
H 2.2887469429 8.5307938094 10.9017649566 
H 2.2981087159 8.5257207898 9.3178545547 
O 6.5941585961 5.5241894365 12.3369010449 
H 6.1112907009 5.1859886654 11.5431930634 
H 6.1100422566 5.1726417704 13.1250249776 
H 9.9159657165 5.1832562692 9.3231372513 
O 5.3200958905 9.0794809946 10.1393533801 
H 5.7536265136 8.7430939033 9.3163134717 
O 6.5983651222 8.2147364226 12.3420336974 
H 6.1234687915 8.5102369792 11.5258340448 
H 6.5789701617 7.2251011322 12.3300699343 
O 9.1466476984 9.0797965947 12.3305594919 
H 8.2048809963 8.7751426716 12.3272739620 
H 9.9339977128 8.5291846124 10.9121430753 
O 10.3718480309 8.1903730958 10.0929120977 
O 14.1931250513 5.5274581591 12.3076298824 
H 13.7466809930 5.1818386097 13.1204296404 
H 15.1175165490 5.1769676160 12.3292285093 
O 10.3832513834 5.4897349837 10.1391514556 
H 10.3710787493 6.4786016260 10.1128828261 
O 12.9109754934 9.1072654127 10.1192986118 
H 13.4009036589 8.7679878037 9.3308016188 
H 13.3931562909 8.7690939110 10.9144789557 
H 11.3015541624 8.5266226076 10.1156643864 
O 14.2127052525 8.2188713868 12.3002926027 
H 13.7456633998 8.5246697424 13.1176118090 
H 14.2037283195 7.2291258794 12.3292988991 
H 2.7759357503 14.4046217671 10.1008222613 
H 4.3944139214 12.0823498568 10.1205503283 
O 1.5202914864 11.8068637721 12.2946370664 
H 1.4822760868 10.8172440181 12.3061675205 
H 0.5815014819 12.1185437384 12.3007015898 
O 2.8102792674 12.6805672534 10.1064993884 
H 2.3149134115 12.3455819633 10.8952115634 
H 2.3259988710 12.3447153350 9.3125824032 
H 6.5805038684 14.4052872248 12.2969255438 
O 5.3387924666 11.7831842288 10.1265560383 
H 5.3164973759 10.7946339685 10.1237685212 
O 6.5721535862 12.7082123006 12.3322829957 
H 6.1258629061 12.3584805988 11.5214621376 
H 7.5022556461 12.3723711551 12.3042519226 
H 9.1187207979 10.0680282273 12.3241177985 
O 9.0994092612 11.7855340771 12.3054478057 
H 9.5833899945 12.1193455795 11.5099755542 
H 9.5866343403 12.1290499317 13.0934217178 
O 10.3649891262 12.6704549447 10.1001693564 
O 12.9187221606 11.8013575727 10.0828241603 
H 12.9311674379 10.8123295657 10.1127001294 
H 13.3878628512 12.1084957728 10.8971762715 
O 14.2174977204 12.6746261696 12.2857176981 
H 14.1985035325 13.6636793085 12.3107516324 
H 13.7477979331 12.3677795507 13.1001415974 
H 10.3955876904 13.6603700842 10.1031063898 
H 11.3057690901 12.3637040039 10.1009432903 
H 4.3927466533 4.9013155547 14.5211494034 
O 2.7840620665 0.9864863775 14.5046445382 
H 2.3013690100 1.3239681599 13.7108342097 
H 2.2969015742 1.3301896078 15.2942597825 
H 4.3954599950 1.5660125073 14.5073653825 
O 1.5032270281 4.5838037756 16.6950619548 
H 1.9445601822 4.9215964096 17.5127762861 
H 0.5732128248 4.9205742163 16.7189979797 
O 1.4753289176 1.8863829509 16.6755800592 
H 1.4853947864 2.8756358705 16.7040909265 
H 1.9371052388 1.5852270050 17.4971583673 
O 5.3364312951 4.6021466911 14.5258879421 
H 5.3115952084 3.6126248307 14.5200288182 
O 5.3255151578 1.9018367954 14.5339364925 
H 5.7647901113 1.5656500209 13.7141088960 
O 6.5965578334 1.0176557834 16.7427268407 
H 6.1246810665 1.3094886192 15.9241306567 
H 9.9283063485 1.3448612577 15.3118011800 
O 9.1433071170 4.6306910683 16.7095731033 
H 8.2028136438 4.9374116743 16.7094272162 
H 9.1108961760 3.6409454979 16.7167363397 
O 9.1267445991 1.9403456193 16.7000221005 
H 9.5732949609 1.5869645422 17.5091972741 
H 8.2016696428 1.5894827472 16.7202942127 
O 12.9620366303 4.6148489302 14.5188117445 
H 12.9340555808 3.6253910839 14.5119047425 
H 12.0191678261 4.9179060229 14.5238968868 
O 10.3967648346 1.0360273897 14.4968798507 
O 12.9414112142 1.9193386942 14.4797334226 
H 12.0097439449 1.5882404829 14.5101072266 
H 13.3844599876 1.5773366030 15.2955889240 
O 14.1948191355 0.9850320843 16.6760708200 
H 13.7516814843 1.3266978870 17.4930317662 
H 15.1222413910 1.3296100076 16.6999323218 
O 2.7951019160 5.4991777779 14.5152881863 
H 2.3079540666 5.1554505450 13.7256722842 
H 2.3084807003 5.1637024791 15.3084311225 
O 2.7472487721 8.2040658865 14.5081120776 
H 2.7725238892 7.2154455881 14.5073346337 
H 3.6876858882 8.5087017011 14.5106231558 
O 1.5076905448 9.1207462702 16.7225868497 
H 0.5838918748 8.7673348945 16.6989102226 
H 1.9564659496 8.7726737855 15.9131190106 
O 5.2998451952 9.0871823314 14.5412774508 
O 6.5955492458 5.5250061009 16.7084262815 
H 6.1155801394 5.1864972435 17.5034047631 
H 6.1129471864 5.1696713650 15.9204483779 
H 9.9369831902 5.1745128627 15.3133592053 
H 9.9440762961 5.1777088394 13.7303077991 
H 5.7730861920 8.7832757825 13.7271699787 
O 6.5936522412 8.2154131700 16.7337992593 
H 6.1239849824 8.5261020188 15.9193096037 
H 6.5766788354 7.2258314474 16.7034918674 
H 9.9391712779 8.5088536732 13.7385114461 
O 9.1329117966 9.1033065840 16.7408865151 
H 8.2024479432 8.7670431663 16.7124434882 
H 9.5768835545 8.7611846393 15.9257036205 
O 10.4297748151 5.5128026871 14.5240843746 
O 14.2291775923 5.4967094074 16.7093964703 
H 13.7379817856 5.1578141980 15.9189838012 
H 13.7428841825 5.1633682175 17.5033632810 
O 10.4170543724 8.2057285496 14.5497455243 
H 10.4022340917 7.2159710966 14.5270443891 
O 12.9544742539 9.1231403717 14.5015749388 
H 12.0296166362 8.7735440142 14.5292884441 
H 13.4062177650 8.7720577150 15.3089907695 
O 14.2356707911 8.1945222237 16.6806472750 
H 13.7600122672 8.4899424982 17.4972156006 
H 14.2186425360 7.2051384560 16.6966558666 
H 4.4009362460 12.1223071008 14.5111640622 
O 2.7957960489 12.6730945007 14.5212184953 
H 2.3216463441 12.3686280840 13.7086063654 
H 2.7715622521 13.6629231810 14.5002638457 
O 1.4964728208 11.8050237620 16.7344662441 
H 1.5019434057 10.8151603163 16.7014215651 
H 1.9654568663 12.1122001282 15.9205207929 
H 6.5908531809 14.4046566416 16.7282678204 
O 5.3291655337 11.7808651636 14.5437076459 
H 5.7759091352 12.1193918088 13.7291899458 
H 5.3148850166 10.0764636084 14.5176606937 
O 6.6183479260 12.6935069778 16.7341351125 
H 6.1252244045 12.3569477927 17.5221740764 
H 6.1295541057 12.3618042884 15.9402903461 
H 9.9387315099 12.3729563482 15.3111132245 
O 9.1510075861 11.7973731487 16.7197079123 
H 9.1299105131 10.8078960410 16.7176861137 
H 8.2076653951 12.0961331267 16.7249657046 
H 10.3867843621 14.4225793574 14.5282604359 
O 12.9162642133 11.8121310133 14.4935872356 
H 13.3907294474 12.1205499048 15.3048326887 
H 12.9348513215 10.8224932707 14.5229899926 
O 10.3825485606 12.7209842635 14.4986486600 
H 11.3099990034 12.3766328055 14.5221901853 
O 14.1900729685 12.6767314477 16.7117424806 
H 14.2186140198 13.6669762299 16.7070371247 
H 15.1301191720 12.3706510898 16.7102484122 

