&CONTROL
   calculation      = 'vc-relax'
   tstress          = .true.
   tprnfor          = .true.
   outdir           = './'
   pseudo_dir       = '/global/homes/p/ppiaggi/QuantumEspresso/pseudos'
/
&SYSTEM
   ecutwfc          = 150
   input_dft        = 'SCAN'
   ntyp             = 2
   nat              = 384
   ibrav            = 0
/
&ELECTRONS
   mixing_beta      = 0.5
   startingpot      = 'atomic'
   startingwfc      = 'atomic+random'
/
&IONS
/
&CELL
/

ATOMIC_SPECIES
O 15.999400004115753 O_ONCV_PBE_sr.upf
H 1.0079400002592869 H_ONCV_PBE_sr.upf

K_POINTS gamma

CELL_PARAMETERS angstrom
15.25100410651510 0.00000000000000 0.00000000000000
0.00000000000000 14.38211541019048 0.00000000000000
0.00000000000000 0.00000000000000 17.62354156087107

ATOMIC_POSITIONS angstrom
O 1.4773644754 1.8971604876 3.5210677818 
H 1.4935134619 2.8859186217 3.4981195847 
H 1.9479967965 1.5938098966 2.7041129796 
O 1.5043556780 4.6050240846 3.4771996981 
H 1.9480146208 4.9346854117 4.2972967277 
H 0.5741657403 4.9406217526 3.5070191681 
O 2.7408279972 0.9935123856 1.3294262441 
H 3.6688813480 1.3366055507 1.3047998873 
H 2.2981875123 1.3333375917 0.5128570620 
O 5.2801002417 1.8861779021 1.2781999616 
O 5.2830048356 4.5816473567 1.3123651137 
H 5.7680774968 4.9183155179 2.1063506861 
H 5.7747196123 4.9167051941 0.5230178694 
H 5.2973748006 2.8753040943 1.3009998180 
H 5.7557420380 1.5832237966 2.0906000423 
O 6.5476705930 1.0230550878 3.4960878283 
H 7.4903405984 1.3259402200 3.5048250739 
O 9.0863440270 1.9160324785 3.5105485956 
H 9.5726441881 1.5732031491 2.7205382616 
H 9.5686678502 1.5709966349 4.3039258982 
O 9.1037220596 4.6045576785 3.4829377948 
H 9.5693796067 4.9096547350 4.2995884855 
H 9.1160746858 3.6147678863 3.5093107418 
H 9.9347462051 1.3161844048 0.5099645802 
O 12.9619950156 4.6210914634 1.3159197666 
H 12.0198129744 4.9235535800 1.3159117713 
H 12.9331681655 3.6315471883 1.3125631183 
O 12.9408331404 1.9221454916 1.3290041103 
H 12.0117497174 1.5826884807 1.3071771727 
H 13.3802357525 1.5757350949 0.5126734475 
O 10.4010776096 1.0193933930 1.3311797839 
O 14.1907861063 1.0018942689 3.5389022936 
H 15.1186291391 1.3431932213 3.5118321340 
H 13.7464839326 1.3390697837 2.7225776526 
O 2.7533183474 5.4980352289 1.2664962456 
H 3.6840483805 5.1631935224 1.3005754639 
H 2.3097646102 5.1708322428 2.0882559462 
O 1.5000874592 9.1045729276 3.5236183748 
H 0.5723607718 8.7584178038 3.4986449595 
H 1.9436923552 8.7589271302 2.7104708108 
O 2.7363861375 8.1932423286 1.2952171427 
H 2.7603969053 7.2037211352 1.2907179223 
H 3.6786851894 8.4940839487 1.2965722620 
O 5.2884749221 9.0642823364 1.3160403994 
O 6.5523584855 5.4767066783 3.5083464626 
H 6.5844400705 6.4652416130 3.5112543828 
H 7.4924490821 5.1681595401 3.5063113626 
H 9.9410968500 5.1631809090 0.5175212049 
H 9.9365558342 5.1709361907 2.0990482897 
H 5.7666308767 8.7583967849 0.5055728143 
O 6.6048505717 8.1799515001 3.5117423798 
H 6.1210241519 8.5160240414 2.7178517725 
H 6.1184658824 8.5297961950 4.2998759720 
O 9.1410433050 9.0798424761 3.5000912191 
H 8.1993370005 8.7758816181 3.5042013479 
H 9.9346052034 8.5134387335 2.0848981414 
O 14.2260454956 5.5185315833 3.5105847782 
H 13.7375322159 5.1761775903 4.2997519600 
H 13.7421599921 5.1761767184 2.7176007897 
O 10.4188964843 5.5172012789 1.3080352716 
O 12.9584421612 9.0765893212 1.2943063879 
H 12.0182243987 8.7682238259 1.2938177383 
O 10.4104078194 8.2054690061 1.2749811803 
H 10.3930129642 7.2160283802 1.3027180058 
O 14.2226177296 8.2087466622 3.5217242137 
H 13.7505329427 8.5100619745 2.7067257072 
H 14.2039374186 7.2187394465 3.5033091790 
H 4.3898398511 12.1121679732 1.2858732480 
O 1.5185832537 11.7965406868 3.4989466058 
H 0.5805332337 12.1077632761 3.4981370919 
H 1.4829142466 10.8075172187 3.5001671649 
O 2.7839629381 12.6700988697 1.2796354261 
H 2.7648078569 13.6585086804 1.3056841557 
H 2.3121127177 12.3615903031 2.0924125117 
H 6.5752293624 14.4161650587 3.4963524741 
O 5.3170945283 11.7680623107 1.2570693141 
H 5.7623458781 12.1095385840 2.0708736535 
O 6.5574021405 12.7041608123 3.4672774579 
H 6.1144468703 12.3669201536 4.2843258094 
H 7.4892217824 12.3723536574 3.4991240765 
H 5.3028807146 10.0527456308 1.2891299920 
H 9.1122758176 10.0678723506 3.4972645983 
O 9.0880381175 11.7921706092 3.4995680067 
H 9.5744293608 12.1265000903 4.2934598771 
H 9.5768996343 12.1273680877 2.7088241650 
H 9.9368318326 12.3680381315 0.4932294940 
H 10.3943213325 14.4120295076 1.3054210407 
O 12.9114697981 11.7807976410 1.2925639410 
H 13.4007325700 12.1172744576 0.5023913585 
H 13.3916755915 12.1247015740 2.0855834068 
O 14.2073741844 12.6819525805 3.4808647992 
H 13.7395058911 12.3812963023 4.2981543801 
H 14.2038365663 13.6705470341 3.5090477229 
H 12.9285121873 10.0646855592 1.2969377736 
O 10.3791368017 12.7050272255 1.3105368893 
H 11.3083539057 12.3675724957 1.2833808172 
O 2.7348100074 0.9867799083 5.7243016052 
H 3.6649074244 1.3214981787 5.6974193747 
H 2.2951957483 1.3311100013 4.9075683776 
O 1.4954091145 4.5829606219 7.8912260390 
H 1.9365504628 4.9272657103 8.7065460310 
H 0.5685137087 4.9264645932 7.9083933999 
O 1.4791696048 1.8759947201 7.9317510700 
H 1.9444852361 1.5758479311 7.1116000878 
H 1.4889342347 2.8642958545 7.9106189385 
O 5.2768026256 1.9080233925 5.6986571708 
O 5.2786208323 4.6036176386 5.7276982314 
H 5.7552704209 4.9105682050 4.9176836241 
H 5.2990425996 3.6145509042 5.7030099157 
H 5.7661477368 1.5697810830 6.4881132243 
H 5.7626068364 1.5727682655 4.9044677224 
O 6.5695789238 0.9873518407 7.8855540281 
H 7.4998615454 1.3242538725 7.9065765154 
H 6.1344706134 1.3256454193 8.7061832506 
O 10.3479483429 1.0191838953 5.7029845644 
O 9.1148530153 4.5876761272 7.8961861340 
H 8.1878718500 4.9313004480 7.9192076292 
H 9.5618581382 4.9376634137 8.7070339446 
O 9.1069110383 1.8841490668 7.9326115368 
H 9.5740991667 1.5860378623 7.1131082858 
H 9.1142565492 2.8726334810 7.9166905510 
O 12.9449107569 4.6118139486 5.7000866869 
H 12.0032895551 4.9151939769 5.7037216454 
H 12.9160443946 3.6225147751 5.7057853059 
H 11.2906440904 1.3200980393 5.7051489790 
O 12.8886266034 1.9110503082 5.7180463976 
H 13.3751205489 1.5706243160 6.5094389260 
H 13.3798082123 1.5774749434 4.9265551729 
O 14.1691937437 1.0169499238 7.9100838005 
H 15.1111473575 1.3197932857 7.9085455213 
O 2.7477220856 5.5081758105 5.6881201226 
H 2.3007173279 5.1708999835 6.5030856089 
H 3.6736133056 5.1601107599 5.7126723443 
O 2.7784734107 8.2111015830 5.7158094968 
H 2.7648999192 7.2223117228 5.6959549712 
H 2.3008462874 8.5123516812 4.9030400325 
H 4.3924582935 8.7819343869 5.6924377968 
O 1.4753562047 9.0977590720 7.9029783535 
H 1.9615181359 8.7571802852 8.6943757357 
H 1.9607598283 8.7597803966 7.1096789428 
O 6.5673765444 5.4872239744 7.9393036168 
H 6.5545450209 6.4766343592 7.9082174016 
H 6.1020796391 5.1771220675 7.1242335400 
H 9.9167460853 5.1793191193 6.5101451636 
O 5.3333080096 9.0864309710 5.6960254328 
O 6.5510137637 8.1777534043 7.9304259870 
H 7.4811249520 8.5131523215 7.9038702536 
H 6.1113579715 8.5217247371 7.1139916978 
H 9.9410065069 8.5266828258 4.9054642406 
O 9.0844973761 9.0992557071 7.9034770800 
H 9.5752873332 8.7651714453 8.6945322586 
H 9.5767298269 8.7684098600 7.1123541652 
O 10.3846189953 8.1857243257 5.7207070157 
O 10.3892844832 5.4801801477 5.6947622558 
H 10.3800222047 6.4688306788 5.7154983028 
O 14.2168312941 5.5214605018 7.8920750009 
H 13.7312917988 5.1745591979 7.1036681056 
H 13.7352976047 5.1829172344 8.6864336061 
H 11.3105877710 8.5312203565 5.7013401807 
O 12.9174337060 9.1296048268 5.7089409804 
H 13.4009013275 8.7856307465 4.9187729372 
H 13.4006047903 8.7849887069 6.5013747625 
O 14.1796971233 8.2204785556 7.8987516918 
H 14.1998386692 7.2310028750 7.8932102821 
H 15.1242833803 8.5147499013 7.9016008554 
H 4.3821264361 12.1168964544 5.7048825724 
O 2.7654394252 12.6707369870 5.7312446550 
H 2.7452802237 13.6594222898 5.7034812569 
H 2.3014596131 12.3615785710 4.9146160389 
O 1.4695840174 11.7921075488 7.9250437993 
H 1.4884303062 10.8030515635 7.8994656422 
H 1.9413092715 12.1003683513 7.1117384011 
O 5.3098854481 11.7750887191 5.6786080893 
H 5.7558130345 12.1210015195 6.4915640356 
H 5.3033888411 10.0763216595 5.6972727391 
O 6.5470298134 12.6780846668 7.8882611800 
H 7.4866781695 12.3709000749 7.8936179671 
H 6.5773919522 13.6673843101 7.8963573538 
H 9.9301930714 12.3612796327 6.4984564714 
O 9.1015511554 11.7990493860 7.8771360025 
H 9.1163052772 10.8099535135 7.9027915789 
H 9.5765105023 12.1013778364 8.6905410931 
H 10.3750423743 14.4116127447 5.7029704340 
H 14.1979907272 14.4093398016 7.9136132228 
O 12.9107516030 11.8216282397 5.6908905373 
H 13.3789859042 12.1270360077 6.5071317862 
H 12.9303031842 10.8318843456 5.7173675237 
O 10.3708684714 12.7075177677 5.6832419024 
H 11.3014038140 12.3715124301 5.7081127842 
O 14.1857281739 12.7113209099 7.8977030977 
H 15.1095955981 12.3584637222 7.9147470463 
H 13.7406631827 12.3654760358 8.7116300971 
O 1.4841197912 1.8768612010 12.3328706927 
H 1.9534145860 1.5679105813 11.5183351713 
H 1.4952383968 2.8669387090 12.3016658755 
H 4.4063816685 1.5666244288 10.1239869180 
O 1.4998566409 4.5612449295 12.3286109650 
H 0.5730063060 4.9050245231 12.3041113189 
H 1.9439776920 4.9121952111 11.5175471078 
O 2.7835422421 1.0060567727 10.1323546840 
H 2.3107630452 1.3117680229 9.3192929152 
O 5.2927737184 4.6173450529 10.1465221777 
H 5.7576361320 4.9248340745 9.3293220329 
H 5.3121418217 3.6292721130 10.1222763871 
O 5.3317689328 1.9129639115 10.1015009100 
H 5.7756997293 1.5691185836 10.9155643083 
O 6.5978431930 1.0093122860 12.3065633392 
H 6.1215586064 1.3163034777 13.1160410372 
O 9.1509887843 1.8788871796 12.3168369322 
H 9.1178250956 2.8678404427 12.3140539931 
H 8.2108915828 1.5710031383 12.3205721100 
O 9.1207904585 4.5739808343 12.3339754925 
H 8.1949079004 4.9234750570 12.3165726263 
H 9.5609764790 4.9210014329 11.5202721894 
H 9.9286061328 1.3130148955 10.9122985525 
H 9.9306395450 1.3135968569 9.3306607316 
O 12.9156060107 4.6229860060 10.0818628649 
H 12.9280158631 3.6346968891 10.1065494811 
H 13.3862240344 4.9257958510 10.8982960481 
O 12.9407623974 1.9190369546 10.1357668165 
H 13.3845985892 1.5777348350 9.3204279220 
H 12.0159342506 1.5705504466 10.1163720217 
O 10.4142009284 0.9698113313 10.1210982700 
O 14.1950210748 0.9972952952 12.3404548888 
H 13.7507889465 1.3353491996 11.5235676933 
H 15.1260695790 1.3324447414 12.3094450256 
O 2.7296952832 5.4847806241 10.1136520218 
H 3.6701844415 5.1802889516 10.1154526307 
H 2.7600885250 6.4743523980 10.1134759615 
O 1.4940359373 9.0719700173 12.2787088202 
H 1.9560371308 8.7722990120 13.1000026699 
O 2.7578474526 8.1748094133 10.0901554274 
H 3.6863405988 8.5140227865 10.1110680757 
H 2.3183958699 8.5209361650 10.9068989795 
O 5.3045052700 9.0814796661 10.1345916146 
O 6.5932827010 5.4909203436 12.3442112840 
H 6.1189752414 5.1860278010 11.5307949445 
H 6.5830191996 6.4803198679 12.3162870014 
O 10.3562310369 5.4921942657 10.1008352680 
H 5.7676185780 8.7786804271 9.3138572877 
O 6.6142579193 8.1879355145 12.3141439182 
H 6.1223229073 8.5251045881 13.1028853416 
H 6.1306316749 8.5278026918 11.5209187456 
O 9.1589039181 9.0748189727 12.3092732075 
H 8.2155926304 8.7767635454 12.3136542579 
H 9.9431274273 8.5204284629 10.9023964264 
O 10.3788637480 8.1788714916 10.0825548608 
O 14.2119264874 5.4754693999 12.2808981449 
H 14.2053773128 6.4654024783 12.3025552804 
H 13.7461055815 5.1776419277 13.1010432315 
H 11.2973718072 5.1888850491 10.1035529790 
H 10.3848393898 6.4822624077 10.1060262241 
O 12.9066685313 9.1089195634 10.0954906097 
H 13.3929178272 8.7734879919 9.3020522373 
H 13.3929426243 8.7663362420 10.8845562689 
H 11.3092736967 8.5155792912 10.1008610052 
O 14.2024425228 8.1663621150 12.2740907119 
H 13.7649815967 8.5064618785 13.0941329339 
H 15.1307304684 8.5064527225 12.2967015945 
H 2.7649205466 14.3991222566 10.1078600565 
H 1.4966654534 10.0617636582 12.3063868485 
H 4.3843368434 12.1152723454 10.0955908498 
O 1.5041997024 11.7636689309 12.2821299279 
H 0.5783109045 12.1092493418 12.3087485639 
H 1.9502441597 12.1063580497 13.0958447466 
O 2.7823687795 12.6940460338 10.1013117356 
H 2.2978960769 12.3510226847 10.8926991495 
H 2.2963333638 12.3544508987 9.3097109682 
H 6.5752569280 14.4019970106 12.3268892194 
O 5.3153918812 11.7816871270 10.1220505827 
H 5.7539924028 12.1185423289 9.3023397267 
O 6.6008384409 12.6994560843 12.3143400398 
H 6.1160622555 12.3636320165 11.5213996297 
H 6.1171409232 12.3521958932 13.1050571729 
H 5.3092534174 10.0703948536 10.1065316794 
H 9.1351691394 10.0638112796 12.3131301821 
O 9.1397608199 11.7739379932 12.2904406543 
H 9.5813037270 12.1144666091 13.1083176294 
H 8.2101039716 12.1109171139 12.3156971332 
H 9.9349040225 12.3561828375 10.9004985332 
O 12.9544057663 11.8085051110 10.1091754560 
H 12.0112251553 12.1096914022 10.1103851291 
H 12.9287872002 10.8196125343 10.1060192424 
O 14.2163743202 12.6852505203 12.3336784780 
H 13.7445106038 12.3822996054 11.5190874708 
H 14.2026008847 13.6746704553 12.3123854162 
O 10.4059108893 12.6618290301 10.0859480178 
H 10.3892550338 13.6512174260 10.1134356972 
H 4.4018133229 4.9270320387 14.5185736871 
O 2.7598100474 1.0231335525 14.5456159427 
H 2.2952268724 1.3263485155 13.7261803052 
H 4.3837042377 1.5917380060 14.5279789354 
O 1.4706509885 4.6205430989 16.6993259440 
H 1.9488486017 4.9146941020 17.5147543970 
H 1.4766879738 3.6316033426 16.7195963392 
O 1.4909689368 1.9173282378 16.7474923237 
H 0.5643186918 1.5738232166 16.7284276877 
H 1.9315225502 1.5764127418 15.9300568215 
O 5.3303970762 4.5898578209 14.5424181555 
H 5.7707893299 4.9317860048 13.7247191068 
O 5.3260400438 1.8916870662 14.5306014854 
H 5.3030834146 2.8810569638 14.5249294739 
O 6.5968533651 0.9762022444 16.7111104922 
H 6.1151404343 1.3164731909 17.5040069170 
H 6.1097177877 1.3269649566 15.9240050976 
H 9.9453437684 1.3216906005 13.7250963653 
O 9.1247044961 4.5929157783 16.7564800521 
H 9.5847199771 4.8949414349 15.9340217064 
H 9.1314150532 3.6042750718 16.7303456487 
O 9.1390987982 1.8913766487 16.7465908656 
H 8.2093732847 1.5558883512 16.7125316430 
H 9.5862582693 1.5571160460 15.9297625162 
O 10.3911235932 0.9773049441 14.5378985316 
O 12.9557113709 4.5858926942 14.4966605516 
H 12.0240689581 4.9163379242 14.5206913702 
H 13.3952017042 4.9351937535 15.3105454127 
H 11.3185138919 1.3210742868 14.5142124385 
O 12.9240687566 1.8784444746 14.5402917105 
H 12.9405518687 2.8669529025 14.5215568801 
H 13.3992036350 1.5790486210 13.7254349776 
O 14.2006584749 1.0103103104 16.7578458522 
H 13.7376127794 1.3128362525 15.9372777879 
O 2.7829637805 5.5116021505 14.5197190639 
H 2.2947975285 5.1743664005 15.3113678349 
H 2.3009150924 5.1667362529 13.7290217962 
O 2.7802319565 8.2098076981 14.5016217006 
H 2.7617932492 7.2204640382 14.5248654685 
H 2.3046258672 8.5150782076 15.3143818138 
H 4.3841911552 8.7598852388 14.5258554769 
O 1.5071633757 9.1065859459 16.6980552377 
H 1.9495671449 8.7585242634 17.5115366967 
H 0.5770281790 8.7664222460 16.7214376101 
O 6.5803711509 5.5000509613 16.7551257365 
H 6.1432762384 5.1645425262 15.9337550453 
H 7.5089552945 5.1603975572 16.7343303193 
H 9.9284835306 5.1528228249 13.7274241994 
O 5.3120071830 9.1037022025 14.5001236258 
H 5.7572445398 8.7620303078 15.3137629012 
O 6.5559836389 8.1994875886 16.7264441512 
H 6.5856953146 7.2105301742 16.7295489258 
H 7.4975596954 8.5027447133 16.7178527022 
H 9.9509342515 8.4966569192 13.7106320042 
O 9.0987527570 9.0921927253 16.7068412197 
H 9.5849163928 8.7463263232 15.9192547457 
H 9.5829996212 8.7557612587 17.5005971973 
O 10.3949440840 8.1487691286 14.5230714090 
O 10.3986134005 5.4564670983 14.5430279426 
H 10.3919501001 6.4458401841 14.5111777570 
O 14.1943389000 5.5346898697 16.7054993869 
H 13.7505839481 5.1928228071 17.5193629292 
H 15.1210807739 5.1875224527 16.7305524677 
H 11.3214816774 8.4919455858 14.4987129955 
O 12.9426513470 9.0638720639 14.4786245334 
H 13.4128752755 8.7665456618 15.2966191561 
O 14.2290833296 8.2180892312 16.6941694964 
H 13.7554585492 8.5246758753 17.5066656348 
H 14.2147821472 7.2279046473 16.7232765689 
H 2.7552514789 14.4163048234 14.5155192510 
O 2.7542624481 12.7051388341 14.4770500183 
H 3.6822090484 12.3640079906 14.4989110916 
H 2.3174822441 12.3599380221 15.2949789387 
O 1.5058129923 11.7974806198 16.6820471192 
H 1.9707157975 12.1021326889 17.4997990456 
H 1.5125620056 10.8078558078 16.7111806700 
O 5.2922732894 11.7948665240 14.4801675152 
H 5.7596347263 12.0995810744 15.2974800042 
H 5.2997500702 10.8053487711 14.5123637015 
O 6.5906184417 12.6615756836 16.6819575938 
H 6.5708870985 13.6505075185 16.7062188030 
H 6.1156999051 12.3563754623 17.4949925428 
H 9.9340251629 12.3627947765 15.3009905804 
O 9.1431996976 11.8024111513 16.7047946855 
H 9.1174431812 10.8146194777 16.7056958323 
H 8.2010886294 12.1053410906 16.7040503459 
H 14.1985083117 14.4030668078 16.7263449634 
O 12.9591204227 11.7649067256 14.5283954582 
H 13.3999675649 12.1148298847 13.7149859893 
H 12.0304310996 12.1029834977 14.5062936578 
O 10.4104234923 12.6633510244 14.4874392911 
H 10.3992230491 13.6527606606 14.5094950568 
H 12.9517870639 10.0529318048 14.5002213085 
O 14.2090661414 12.6985296630 16.7305556666 
H 13.7647529378 12.3576071971 15.9155321754 
H 15.1375628768 12.3604185841 16.7036457447 

