&CONTROL
   calculation      = 'vc-relax'
   tstress          = .true.
   tprnfor          = .true.
   outdir           = './'
   pseudo_dir       = '/global/homes/p/ppiaggi/QuantumEspresso/pseudos'
/
&SYSTEM
   ecutwfc          = 150
   input_dft        = 'SCAN'
   ntyp             = 2
   nat              = 384
   ibrav            = 0
/
&ELECTRONS
   mixing_beta      = 0.5
   startingpot      = 'atomic'
   startingwfc      = 'atomic+random'
/
&IONS
/
&CELL
/

ATOMIC_SPECIES
O 15.999400004115753 O_ONCV_PBE_sr.upf
H 1.0079400002592869 H_ONCV_PBE_sr.upf

K_POINTS gamma

CELL_PARAMETERS angstrom
15.25147916621664 0.00000000000000 0.00000000000000
0.00000000000000 14.37077381854268 0.00000000000000
0.00000000000000 0.00000000000000 17.61810421322046

ATOMIC_POSITIONS angstrom
O 1.4566700216 1.9070254769 3.5028419271 
H 1.9340507002 1.5706644100 2.7046354269 
H 1.9541394023 1.5689624444 4.2893715544 
O 5.2587129196 4.6073209045 1.3133766494 
O 5.2691474018 1.9085523774 1.2962450097 
O 1.4600081975 4.5990083005 3.5322618441 
H 1.9311646296 4.9031387587 2.7172164378 
H 1.4761547871 3.6092240086 3.5095258623 
O 2.7355806634 0.9817858108 1.3098890255 
H 3.6596143137 1.3332616061 1.2981717177 
H 2.2960597991 1.3290470971 0.4943427893 
H 5.7505149530 4.9356771742 0.5203970975 
H 5.7499858020 4.9420343835 2.1047765368 
H 5.7439842200 1.6082368126 2.1093858067 
H 5.2825543860 2.8978193060 1.3155185253 
O 6.5431987881 1.0337464388 3.5208039484 
H 7.4844200848 1.3386188584 3.5117260342 
O 9.1068292725 1.8868988462 3.5162368044 
H 9.5740627003 1.5724259072 2.7030736713 
H 9.1193656855 2.8760293395 3.4794993052 
O 9.0885317006 4.5780364672 3.4772774075 
H 9.5679532169 4.9230324944 2.6838133753 
H 9.5790796548 4.9158540805 4.2667386291 
H 9.9311698710 1.3127649043 0.5001030200 
O 12.9070268814 4.6142281850 1.3014201111 
H 12.9219964341 3.6256586365 1.3224872630 
H 13.3745467488 4.9174404563 2.1193556604 
O 12.9373892286 1.9069819020 1.3352478325 
H 13.3893609269 1.5748303448 0.5207888266 
H 12.0099542854 1.5643917376 1.3006869429 
O 10.4018297859 1.0078608382 1.3147436082 
O 14.1767159867 0.9936243183 3.5468182366 
H 13.7341584603 1.3260736754 2.7267961511 
H 15.1075586353 1.3278691432 3.5149226635 
O 2.7159867320 5.4803814517 1.3111935199 
H 2.7361074186 6.4695523934 1.3142998607 
H 3.6610446090 5.1855372208 1.3136643578 
O 1.4569765903 9.0829856859 3.4833361693 
H 1.9304338273 8.7755080843 4.2958582310 
O 5.2567564009 9.0982356166 1.2979396156 
O 2.7233750687 8.1784123506 1.2853642890 
H 2.2816156253 8.5224894893 2.1009075457 
H 3.6543361293 8.5135929164 1.3094318559 
O 6.5598645833 5.5175160674 3.4863453799 
H 7.4880222844 5.1759591772 3.4975208864 
H 6.1234261290 5.1701511266 4.3032018842 
O 10.3495701137 5.4887732226 1.2800393178 
H 5.7413826618 8.7586777316 2.0910645080 
H 5.7443133840 8.7533317388 0.5087946958 
O 6.5379757944 8.2082450404 3.4885065430 
H 7.4779965896 8.5147807210 3.4864622905 
H 6.5684136518 7.2187072624 3.4959553159 
O 9.0988083167 9.0741589678 3.4669349376 
H 9.5713676776 8.7638270387 4.2796389729 
H 9.9244567582 8.5194523604 2.0840349439 
O 10.3678987643 8.1782326778 1.2683154599 
O 14.1729319971 5.5126405451 3.4985788526 
H 15.0988851051 5.1647154580 3.5187109603 
H 13.7331172530 5.1709638144 4.3155784829 
H 11.2903267456 5.1838728678 1.2940477736 
H 10.3799865635 6.4787417961 1.2832086435 
O 12.8959713947 9.0770610119 1.2780449007 
H 13.3661794146 8.7646525942 2.0915768929 
H 11.2961478780 8.5229744430 1.2926472379 
O 14.1555458827 8.2047741131 3.4894447217 
H 14.1857827199 7.2158369685 3.5001715568 
H 15.0944575440 8.5141103152 3.4944871546 
H 1.4842829654 10.0720524788 3.5050963495 
H 4.3926046400 12.1039832453 1.2988132052 
O 1.4724779332 11.7773590066 3.5034223261 
H 1.9580039517 12.1165567464 4.2954695152 
H 1.9587811187 12.1176011761 2.7114841149 
O 2.7795041448 12.6664158551 1.3205946988 
H 2.3140178792 12.3548802564 0.5057793796 
H 2.7591549327 13.6561472534 1.2898779536 
H 6.5759939959 14.4148633991 3.5083671072 
O 5.3326337482 11.7963870005 1.3030159681 
H 5.2993297067 10.8075016956 1.2985296381 
O 6.5689055039 12.7144515926 3.5166589870 
H 6.1259713661 12.3683814994 2.7030542779 
H 7.4964938717 12.3728111190 3.4937595091 
H 9.1169866506 10.0633855032 3.4983584215 
O 9.0961024682 11.7688223047 3.4974099433 
H 9.5881047194 12.1009408752 2.7067437904 
H 9.5826993924 12.1055132636 4.2902662028 
H 9.9496908854 12.3429358074 0.4951805848 
H 10.3885688898 14.3894254030 1.2893010162 
O 12.9236053968 11.7673525174 1.3041712105 
H 13.4041937500 12.1103190019 2.0982260975 
H 13.4096485821 12.1103439989 0.5134271342 
O 14.1787095521 12.6651882672 3.5081792853 
H 15.1221747102 12.3670895566 3.5048201960 
H 14.2021712965 13.6546034098 3.5114482120 
H 12.9219566838 10.0662353828 1.3064043708 
O 10.3890251666 12.6841250563 1.3123649358 
H 11.3192304619 12.3480607726 1.2909743057 
O 2.7341896778 1.0275718404 5.6901932309 
H 3.6785917957 1.3243610586 5.6981537555 
O 1.4884106321 4.6314329805 7.9325245496 
H 1.4981106749 3.6417354897 7.9054347583 
H 1.9532757318 4.9359544874 7.1143848787 
O 1.5046291439 1.9411588157 7.9273699906 
H 0.5795918182 1.5887156188 7.9075207935 
H 1.9464880573 1.5989306456 7.1121340107 
O 5.2774080446 1.9033428770 5.7151824920 
O 5.2944793719 4.6022481879 5.6777013184 
H 5.7637574868 4.9025130052 6.4947668440 
H 5.3021610681 3.6131418346 5.7033942214 
H 5.7621010896 1.5673499002 6.5080240762 
H 5.7691164605 1.5653690040 4.9242084087 
O 6.5816785027 0.9845793006 7.9096705327 
H 6.1405202694 1.3330057985 8.7236184454 
H 7.5081246589 1.3304885674 7.9243307744 
H 9.9330190361 1.3299596197 4.9076473202 
O 9.1258660552 4.5923540622 7.8665763082 
H 9.5720969240 4.9221711742 8.6845022968 
H 8.1951666348 4.9282040875 7.9013195698 
O 9.1194412351 1.8949112559 7.9275554842 
H 9.1225511883 2.8839473331 7.9002081452 
H 9.5843628711 1.5914394528 7.1083170945 
O 12.9133995492 4.6134391196 5.7094530121 
H 12.9289772152 3.6240771273 5.7360132664 
H 13.3869943241 4.9209075137 6.5214704852 
O 10.3970219413 1.0254629031 5.7263100623 
O 12.9390608157 1.9135328515 5.7563170207 
H 13.3805884172 1.5781472538 4.9368124780 
H 12.0091438613 1.5766760160 5.7264472685 
O 14.2332338686 1.0185203390 7.9388736192 
H 13.7493988529 1.3173456917 7.1285341651 
O 2.7468995091 5.5160110469 5.7142352344 
H 2.2973164280 5.1637598643 4.9063737869 
H 3.6725890560 5.1693000955 5.6909541278 
O 2.7210843635 8.2093245675 5.7075479555 
H 2.7539617465 7.2204609085 5.6977360161 
H 3.6601738078 8.5196233132 5.6979347009 
O 5.2725111947 9.0838191855 5.7176444188 
O 1.5069554063 9.1127230643 7.9304704302 
H 0.5743443979 8.7845209681 7.9068527657 
H 1.9423026249 8.7688228851 7.1109636528 
O 6.5936880682 5.4708965523 7.8879032236 
H 6.1255104466 5.1707823960 8.7064009539 
H 6.5721704327 6.4601057869 7.9056534842 
H 9.9268159663 5.1777893996 6.4763550281 
H 5.7440795297 8.7778644251 4.9043760110 
O 6.5903072903 8.1677170733 7.8981781940 
H 6.1024638116 8.5132324542 7.1109706697 
H 6.1110471557 8.5077283970 8.6940343018 
H 9.9229626354 8.5003296550 6.4806186168 
O 9.1418238797 9.0541466308 7.8882163349 
H 8.1998139584 8.7533300542 7.8927478428 
O 10.3765774104 5.5102718436 5.6604835449 
H 11.3055884982 5.1729711962 5.7012001839 
O 14.1868425482 5.4920914612 7.9252047334 
H 15.1293586641 5.1896705787 7.9188784621 
H 14.2120550731 6.4804232460 7.9180347360 
O 10.3950454923 8.2004070264 5.6639100987 
H 10.3839260276 7.2106874219 5.6831926638 
O 12.9280436538 9.1123345521 5.7137148733 
H 12.0008845671 8.7682266830 5.6896898922 
H 13.3709342824 8.7693200429 4.8983667030 
O 14.2231712342 8.1986904198 7.9054683946 
H 13.7354769793 8.5315247166 7.1129649873 
H 13.7363496132 8.5378228894 8.6969675664 
H 2.7588884164 14.4089949182 5.7001244076 
O 2.7590076504 12.7009835377 5.6886254492 
H 2.3221228884 12.3615072690 6.5086676441 
H 3.6897031618 12.3669466517 5.7094184038 
O 1.5346575104 11.8047073546 7.9179835865 
H 0.5917094028 12.1057977533 7.9187981129 
H 1.5072461710 10.8148020724 7.9157144517 
O 5.2943662553 11.7779151387 5.7020930416 
H 5.7762941157 12.1198020964 4.9089022475 
H 5.7845871916 12.1143684356 6.4923932064 
H 5.3001668428 10.0730194901 5.6963239288 
O 6.6108023252 12.6630056710 7.8844573936 
H 6.1400755303 12.3559440573 8.6989381111 
H 6.6000857239 13.6522575746 7.9174188937 
H 9.9392020604 12.3508164032 6.4922543260 
O 9.1441521113 11.7454364113 7.8769490201 
H 9.5879612203 12.0885686522 8.6914433050 
H 8.2174122351 12.0912902402 7.9040143685 
H 9.1167119593 10.0440255173 7.8912761855 
H 10.3862301734 14.4070199897 5.6999736640 
H 14.2209461226 14.3992383169 7.9185501466 
O 12.9245945585 11.8025418270 5.7324344214 
H 12.9299681001 10.8130816270 5.7065244718 
H 13.3947016880 12.1038981902 4.9158978481 
O 10.3781641664 12.6987546684 5.6771247549 
H 11.3080625114 12.3633114586 5.7004464955 
O 14.2452693934 12.6954257233 7.9151788880 
H 13.7556350457 12.3535560698 8.7059178020 
H 13.7599665124 12.3564450575 7.1226932037 
O 1.4934873860 1.8869793193 12.3285324131 
H 1.9601974714 1.5852232768 11.5098579324 
H 1.5031582269 2.8770361825 12.3047507535 
H 4.4000357962 4.9329131554 10.1234571747 
H 4.4024272929 1.5940859223 10.1139897164 
O 1.5036866499 4.5743048269 12.3372677550 
H 1.9425049657 4.9227289847 11.5216066024 
H 0.5739929917 4.9116106277 12.3171767427 
O 2.7876590807 1.0318158327 10.1184912814 
H 2.3112534031 1.3403605639 9.3080180053 
O 5.3273612847 4.5909375399 10.1020879159 
H 5.7705016813 4.9409378355 10.9150386197 
O 5.3434650255 1.8984379814 10.1218925830 
H 5.3159370948 2.8877480075 10.1250803740 
O 6.5910045992 1.0172061660 12.3479792597 
H 6.1216414035 1.3285972749 11.5343040308 
O 9.1487962992 1.8778392636 12.3104527970 
H 8.2081222102 1.5705354367 12.3173020078 
H 9.1143911491 2.8673066383 12.3130845406 
O 9.1211036826 4.5703658216 12.2946632933 
H 8.1962560201 4.9213564110 12.3170347344 
H 9.5661707867 4.9109236087 13.1087567900 
H 9.9400284118 1.3325370377 9.3232837525 
H 9.9334943745 1.3275561449 10.9061159344 
O 12.9206659873 4.6057483287 10.1391951593 
H 13.3943947452 4.9183112312 9.3294484493 
H 12.9435827573 3.6164664164 10.1113841740 
O 12.9617146120 1.9157887087 10.1311116417 
H 12.0335942296 1.5762464265 10.1058973712 
H 13.4071489888 1.5752053357 9.3153194995 
O 10.4223905772 0.9886236647 10.1150282658 
O 14.2047052987 0.9996591517 12.3380136963 
H 15.1349351745 1.3355420512 12.3098031145 
H 13.7625121123 1.3344063258 11.5186514693 
O 2.7717082681 5.4882038137 10.1450310991 
H 2.7570129006 6.4779417617 10.1216040219 
H 2.3051588177 5.1871174082 9.3258488485 
O 1.4777667329 9.0799421157 12.2872528892 
H 1.9493817034 8.7774871524 13.1024941806 
H 4.3858409928 8.7641897979 10.1133689106 
O 2.7817690934 8.1812419152 10.1153602100 
H 2.2998809423 8.5209134210 9.3212792666 
H 2.2959373811 8.5251526421 10.9058275928 
O 6.5954715945 5.4957210615 12.2920442742 
H 6.5813101499 6.4850653389 12.3201877678 
H 6.1257746799 5.1897084819 13.1075268878 
H 9.9277962327 5.1560627701 10.9009667430 
O 5.3176827375 9.0954369277 10.0849727399 
H 5.7567253708 8.7645114181 10.9065081745 
O 6.5683519571 8.1914217886 12.3019282701 
H 7.4970692405 8.5279045962 12.3298311968 
H 6.1229059835 8.5303609534 13.1176369947 
O 9.1273186524 9.0761076286 12.3347030352 
H 9.5880339088 8.7710513291 11.5143878939 
H 9.9297074730 8.4973674390 9.2999768060 
O 14.2100089076 5.4675117423 12.3451954098 
H 14.2008582254 6.4565020739 12.3114418473 
H 13.7425982198 5.1605953602 11.5286902439 
O 10.3753031619 5.4970777467 10.0881813462 
H 11.3030702330 5.1559609668 10.1162058280 
O 12.9402072577 9.1193956602 10.0863601740 
H 12.0130268405 8.7763860670 10.1037780843 
H 13.3803559414 8.7715003356 10.9008165241 
O 10.4009327909 8.2005489101 10.1174219771 
H 10.3903986633 7.2119598110 10.1008572603 
O 14.1883768380 8.1678348303 12.2819884326 
H 13.7500784420 8.5097549061 13.1006532787 
H 15.1154372440 8.5106168555 12.3048205143 
H 2.7741932741 14.4136789125 10.0920177819 
H 1.4880663256 10.0693662718 12.3129951209 
H 4.4037644986 12.1048550720 10.1050521932 
O 1.5119154412 11.7738556940 12.2889743905 
H 1.9596210277 12.1112484092 13.1032960306 
H 0.5854916161 12.1188702103 12.3161745194 
O 2.8098223524 12.7029282023 10.1044963016 
H 2.3225362215 12.3641926911 10.8953821733 
H 2.3218607687 12.3601435498 9.3138410803 
H 6.5729331621 14.3985029502 12.3155449597 
O 5.3448931642 11.7978984814 10.1037019474 
H 5.3127884920 10.8093079428 10.1050624759 
O 6.6067508879 12.6985821056 12.3043668767 
H 6.1251448907 12.3512636594 13.0955972167 
H 6.1257430803 12.3540873934 11.5113279674 
H 9.1432961113 10.0648139601 12.3098259685 
O 9.1497722790 11.7795863835 12.2832765284 
H 8.2209148638 12.1181976670 12.3080801007 
H 9.5941615870 12.1207504474 13.0989689893 
H 9.9434373521 12.3618009583 10.8923926228 
O 12.9723802735 11.8119309093 10.1009763248 
H 12.9389237465 10.8226991812 10.1053416296 
H 12.0312174665 12.1178618118 10.1006608991 
O 14.2246179551 12.6825015472 12.3368183989 
H 13.7564592606 12.3797564051 11.5200882094 
H 14.2106693742 13.6725728279 12.3153144823 
O 10.4131870669 12.6640885113 10.0754909329 
H 10.3943683361 13.6536053685 10.0996136702 
H 4.3944029544 4.9172449902 14.5115492280 
O 2.7743325436 1.0299686223 14.5295495173 
H 2.3107639744 1.3310945636 13.7081583074 
H 4.3836159204 1.5871173489 14.5113424300 
O 1.4981812257 4.5987663377 16.6983699172 
H 0.5696553247 4.9363088275 16.7242302969 
H 1.9376862433 4.9340891286 17.5191253306 
O 1.4806239877 1.8975685055 16.7335222994 
H 1.9480344853 1.5969080215 15.9151409486 
H 1.4916243208 2.8867938358 16.7125263746 
O 5.3370686637 4.6154738725 14.5155853771 
H 5.3112802481 3.6262554657 14.5114104189 
O 5.3149779993 1.9211403731 14.5391840107 
H 5.7579066022 1.5749679426 13.7247597393 
O 6.5863346224 0.9958220869 16.7249523706 
H 6.1015450706 1.3378558654 15.9329433803 
H 6.1047933215 1.3415121986 17.5156734467 
H 9.9277636153 1.3219976168 15.2979841952 
H 9.9335083678 1.3225146179 13.7150114149 
O 9.0836771655 4.5820230799 16.7147788023 
H 9.5673901216 4.9242196729 15.9224328329 
H 9.5684787938 4.9285958523 17.5053519755 
O 9.1361870643 1.8790219240 16.7070247339 
H 9.1098413319 2.8683305890 16.7100788454 
H 8.1934121941 1.5797477052 16.7107355114 
O 12.9220304813 4.6003998783 14.5585568905 
H 12.9323602283 3.6111905269 14.5337273471 
H 13.3868502551 4.9033140621 13.7403279560 
O 10.4177469227 0.9831047753 14.5085670629 
O 12.9479486472 1.9048522933 14.5449246003 
H 13.3973155775 1.5765113112 13.7275572064 
H 12.0194112169 1.5651678446 14.5112358607 
O 14.2013009206 0.9945727479 16.7514036342 
H 13.7523294774 1.3242475155 15.9336308236 
H 15.1282750370 1.3392120180 16.7179901035 
O 2.8005827309 5.5071519799 14.5102935271 
H 2.3094948897 5.1662464288 13.7221420072 
H 2.3108447577 5.1795233203 15.3041243929 
O 2.7882574180 8.2108720933 14.4887311835 
H 2.7755410187 7.2219100999 14.5093676996 
H 2.3081648113 8.5081434155 15.3019240571 
H 4.3873311493 8.7693001546 14.5253760600 
O 1.4980680096 9.0919583318 16.6831494698 
H 0.5675331691 8.7548186687 16.7065482032 
H 1.9335837942 8.7556830614 17.5053787314 
O 6.5523256428 5.5007555074 16.7441005306 
H 7.4838606681 5.1673533349 16.7193789061 
H 6.1145772013 5.1627391211 15.9231275257 
O 5.3149038987 9.1142552309 14.5066172457 
H 5.7557583433 8.7687047819 15.3217474312 
O 6.5344989036 8.1958085964 16.7325612261 
H 6.5557661986 7.2060509020 16.7278344258 
H 7.4795564402 8.4904341907 16.7235945594 
H 9.9511933502 8.5107003433 13.7050159323 
O 9.0747883089 9.0782355653 16.7016405076 
H 9.5657460886 8.7405691854 15.9130298924 
H 9.5643289032 8.7475553367 17.4954258820 
O 10.3642686526 5.4771890810 14.5259169789 
O 10.3901683450 8.1646352097 14.5218247117 
H 10.3960913175 6.4670651625 14.5165982817 
H 11.3040708165 5.1692974104 14.5315127498 
O 14.2070805344 5.5228608453 16.7332750498 
H 13.7262690461 5.1680584188 15.9443387546 
H 13.7302530915 5.1791366087 17.5282357542 
H 11.3171307432 8.5078732799 14.5055210387 
O 12.9369285782 9.0760796809 14.4862417173 
H 13.4037888629 8.7743785913 15.3047804663 
O 14.2096558082 8.2089966778 16.6961893750 
H 14.1923711786 7.2191637464 16.7255279918 
H 13.7370886045 8.5171848413 17.5083574361 
H 2.7722752264 14.4118280477 14.5055449007 
O 2.7704059853 12.7015623422 14.4885452168 
H 3.6978833512 12.3580260358 14.5109396378 
H 2.3270836644 12.3552491103 15.3020223135 
O 1.5288810602 11.7885166817 16.7071802787 
H 0.5893959184 12.0975100782 16.7117148346 
H 1.4966067284 10.7995893756 16.7026236447 
O 5.3065251417 11.7980987945 14.4865880213 
H 5.7738787744 12.1033376766 15.3027073576 
H 5.3113826701 10.8076711456 14.5190136927 
O 6.6020877361 12.6696072953 16.6976335419 
H 6.5744567394 13.6579416773 16.7263406334 
H 6.1270599783 12.3572705834 17.5070520484 
H 9.9435971773 12.3605288824 15.2935634047 
O 9.1493979016 11.7907166972 16.6978031274 
H 8.2107161096 12.1030697721 16.7050572533 
H 9.1123777326 10.8032120383 16.6974044979 
O 12.9653440600 11.7808953249 14.5391787879 
H 13.4080556668 12.1268005152 13.7246394229 
H 12.0362554008 12.1207219899 14.5127495589 
O 10.4210989766 12.6676279518 14.4834260133 
H 10.4019817456 13.6578025347 14.5077111587 
H 12.9499837447 10.0648564966 14.5066536702 
O 14.2284345622 12.6705392302 16.7454240239 
H 14.2163754192 13.6603430611 16.7288494210 
H 13.7577926841 12.3736693359 15.9271831783 

