&CONTROL
   calculation      = 'vc-relax'
   tstress          = .true.
   tprnfor          = .true.
   outdir           = './'
   pseudo_dir       = '/global/homes/p/ppiaggi/QuantumEspresso/pseudos'
/
&SYSTEM
   ecutwfc          = 150
   input_dft        = 'SCAN'
   ntyp             = 2
   nat              = 384
   ibrav            = 0
/
&ELECTRONS
   mixing_beta      = 0.5
   startingpot      = 'atomic'
   startingwfc      = 'atomic+random'
/
&IONS
/
&CELL
/

ATOMIC_SPECIES
O 15.999400004115753 O_ONCV_PBE_sr.upf
H 1.0079400002592869 H_ONCV_PBE_sr.upf

K_POINTS gamma

CELL_PARAMETERS angstrom
15.25601592960812 0.00000000000000 0.00000000000000
0.00000000000000 14.37888149715703 0.00000000000000
0.00000000000000 0.00000000000000 17.61224853447362

ATOMIC_POSITIONS angstrom
O 1.4748595124 1.8828887199 3.4696068644 
H 1.4812652209 2.8726189546 3.4989437154 
H 1.9445995754 1.5795601404 4.2858164738 
O 1.4850884300 4.5749823111 3.4884481648 
H 0.5574063266 4.9188319373 3.5167787015 
H 1.9314660904 4.9134001982 4.3034010954 
O 2.7324047580 0.9975624653 1.2695933409 
H 3.6635740662 1.3288443242 1.2953874181 
H 2.2932225792 1.3362419804 2.0892840869 
O 5.2687984536 4.6000740911 1.2875011784 
O 5.2753239764 1.9068535855 1.3030676055 
H 5.7464567251 4.9023534452 2.0998203294 
H 5.2896627001 3.6104523631 1.3051184630 
H 5.7599609065 1.5680361153 2.0957805422 
H 5.7646389921 1.5675162832 0.5125394836 
O 6.5534764709 1.0136221375 3.5039761025 
H 7.4933735694 1.3235603607 3.4981290112 
O 9.1049180706 1.8922068115 3.4723452859 
H 9.5802978170 1.5879542224 4.2848123380 
H 9.1174341286 2.8818887629 3.4972809241 
O 9.0921922789 4.5838867967 3.4971823920 
H 9.5777247236 4.9189983881 4.2912107930 
H 9.5820476127 4.9248670011 2.7076152554 
H 9.9221364705 1.3295064663 2.0882067318 
O 10.3666538741 0.9814693645 1.2758448079 
O 12.9053439791 4.5950803007 1.3065097014 
H 13.3914832960 4.9346730213 0.5146150797 
H 13.3918943616 4.9323640404 2.0988610109 
O 12.9062218974 1.8958187535 1.3241459781 
H 12.9207882523 2.8850160995 1.3071877878 
H 13.3807656662 1.5984992165 0.5073864644 
H 11.2921281773 1.3298778735 1.2971397072 
O 14.1852009808 0.9815374632 3.5065280251 
H 15.1126586115 1.3235235171 3.4823288024 
H 13.7361710809 1.3293080900 2.6963062564 
O 2.7380513771 5.4950541037 1.2700553688 
H 2.2919741994 5.1599325571 2.0856121300 
H 3.6663402637 5.1514718787 1.3019157606 
O 1.4940085146 9.0749249757 3.5304703306 
H 1.9524216985 8.7692608397 2.7088860594 
H 4.3928583300 8.7776632073 1.3045097020 
O 2.7700989333 8.2094267741 1.3093542230 
H 2.2959447039 8.5191441880 0.4980268968 
H 2.7545627455 7.2216067219 1.2819371009 
O 6.5471135130 5.4675523367 3.4971485921 
H 6.5723569467 6.4562614116 3.4945187649 
H 7.4892196397 5.1661177841 3.4965821116 
O 5.3324799750 9.0849258844 1.3164648768 
O 6.6005592208 8.1700556001 3.4992686689 
H 6.1131728565 8.5230573519 2.7135272709 
H 6.1266673148 8.5120419765 4.2963227556 
O 9.1331789486 9.0908550255 3.4814975141 
H 8.2043084634 8.7510674332 3.5016934452 
H 9.5730765616 8.7494683563 4.2990344301 
H 9.9456461725 8.5129563315 2.0999171381 
O 10.3682817697 5.4791533604 1.3056395086 
O 10.3924207489 8.1762287092 1.2840132159 
O 14.2120496270 5.4802826814 3.4937299792 
H 13.7413926664 5.1748358010 4.3079436971 
H 14.2071898716 6.4695249089 3.5234879079 
H 11.3115801805 5.1778574151 1.3071788035 
H 10.3958468538 6.4685268800 1.3066008254 
O 12.9459020580 9.0638689519 1.3346392669 
H 13.4109937644 8.7633090682 0.5149581891 
H 11.3225382767 8.5100998272 1.3147267900 
O 14.2046497358 8.1775988606 3.5441931787 
H 13.7664204097 8.5140611913 2.7229201405 
H 15.1329892061 8.5175300926 3.5197439089 
H 1.5040274023 10.0648839865 3.4997708921 
H 4.3848229432 12.1233700636 1.3003325140 
O 1.5108230755 11.7642081942 3.5136182544 
H 1.9530240558 12.1102519347 2.6989102387 
H 0.5825811670 12.1050321832 3.4913401716 
O 2.7737696782 12.6736052484 1.3133060558 
H 2.3014850183 12.3671347928 0.4994524699 
H 2.7485712514 13.6626374896 1.2907763343 
H 6.5880133470 14.4030073731 3.5085610572 
O 5.3134840551 11.7834224603 1.3331452749 
H 5.7618302823 12.1212326011 0.5192998689 
O 6.5708158363 12.6976391057 3.5367917263 
H 6.1229400825 12.3630978065 2.7203674939 
H 7.4981760949 12.3534512572 3.5072199885 
H 5.3005291593 10.0739052380 1.3155941323 
O 9.1051589446 11.7929818144 3.5260608102 
H 9.1175953055 10.8041834449 3.5042638399 
H 9.5715583531 12.0946398830 2.7072210604 
H 9.9283521105 12.3598264716 0.5043558529 
O 12.9493140913 11.7622656520 1.2861317632 
H 13.3921606173 12.1077010039 2.1015856117 
H 12.0207401839 12.1009268720 1.3094935927 
O 14.2170145135 12.6637219388 3.4768871651 
H 13.7425223807 12.3717254107 4.2949572149 
H 14.2036306885 13.6535028292 3.4880080865 
H 12.9528678666 10.0530656944 1.3109407106 
O 10.3956549636 12.6595527053 1.3223801892 
H 10.3849393493 13.6485075346 1.3008588219 
O 2.7456924763 0.9855501828 5.6736701933 
H 3.6734280013 1.3261972014 5.6950220222 
H 2.3071748981 1.3262582558 6.4921168240 
O 1.4698941872 4.5839125836 7.9109312237 
H 1.9505611031 4.9297706962 8.7018168641 
H 1.9507896865 4.9317253128 7.1180228742 
O 1.5229086029 1.8820458709 7.9099550005 
H 0.5814112349 1.5806011550 7.9031139199 
H 1.4983988441 2.8705802775 7.9086235764 
O 5.2728034352 4.6099343726 5.7196007778 
O 5.2830677543 1.9155594725 5.6951184913 
H 5.2924921053 3.6210227355 5.6958774376 
H 5.7482173700 4.9142635341 4.9073890635 
H 5.7669329182 1.5799372330 6.4888050095 
H 5.7709062703 1.5706109317 4.9062132269 
O 6.5935225659 1.0266538825 7.8938381605 
H 6.1194068656 1.3300681736 8.7077775882 
H 9.9365336269 1.3324633614 6.4866258080 
O 9.1284003024 4.5860657014 7.8978584617 
H 8.1992297406 4.9247366116 7.9187238798 
H 9.5697114420 4.9260706825 8.7139361445 
O 9.1525813129 1.8920454110 7.8946817760 
H 8.2114158056 1.5873511168 7.9040556424 
H 9.1219766484 2.8812300749 7.9063503038 
O 12.9141172078 4.6036174668 5.6978050232 
H 12.9304391857 3.6147194406 5.7175320074 
H 13.3881025233 4.9064595408 6.5117663651 
O 10.4091571125 1.0230590749 5.6745251810 
O 12.9465693229 1.9015877291 5.7251419202 
H 12.0165720653 1.5621490092 5.7013168380 
H 13.3866339859 1.5630672352 4.9070125005 
O 14.2208516480 1.0166544236 7.9195862420 
H 13.7446702277 1.3142912984 7.1041065605 
O 2.7258868434 5.4788926018 5.7169295504 
H 2.7561032072 6.4683781069 5.7061361037 
H 3.6673416629 5.1722025326 5.7076849212 
O 2.7522545064 8.1697975210 5.7196664927 
H 3.6805095513 8.5083866948 5.7039481859 
H 2.3150749213 8.5172288854 4.9018946337 
O 1.5002774394 9.0810992590 7.9315867348 
H 0.5689443606 8.7477313486 7.9064296216 
H 1.9400730293 8.7475982476 7.1111588301 
O 5.3070775993 9.0735604641 5.6949292768 
O 6.5946146370 5.5083922729 7.9036470496 
H 6.1061586712 5.1709260840 7.1134766012 
H 6.1080396768 5.1697502178 8.6956111925 
H 9.9368145623 5.1638878139 6.5039637929 
H 5.7812129442 8.7716747589 6.5084875066 
O 6.6078192842 8.2000750787 7.8923850937 
H 6.5859459394 7.2107056719 7.9105860604 
H 6.1313134383 8.5026090223 8.7046048716 
O 9.1380357338 9.1045375207 7.9264115071 
H 8.2112886260 8.7574668860 7.9103500973 
H 9.5793162682 8.7569904915 7.1127576027 
O 10.3642854326 8.1917080648 5.7036630158 
H 10.3922180927 7.2023875346 5.7024052875 
O 10.3799781564 5.4974009051 5.6856241149 
H 11.3097098142 5.1588052790 5.7135472489 
O 14.1835082906 5.4703870307 7.9142633330 
H 14.2082940878 6.4598190863 7.9139323246 
H 15.1259675532 5.1683312411 7.9124395489 
H 11.3049533676 8.4973311934 5.7013725526 
O 12.9162489366 9.0744026487 5.7228514173 
H 13.3969892861 8.7730502206 4.9115092429 
O 14.2229058212 8.1677584395 7.9098313442 
H 13.7415734651 8.5104382718 7.1174057476 
H 13.7431993167 8.5186313323 8.7016768352 
H 4.3897698087 12.1111462490 5.7108583247 
O 2.7758200325 12.6535485372 5.7233115933 
H 2.3100520511 12.3495557164 4.9051166576 
H 2.7583682087 13.6418976535 5.6993825315 
O 1.4927108200 11.7812928855 7.9396758766 
H 1.9588016257 12.0814781849 7.1206640341 
H 1.5005258019 10.7922485450 7.9165952523 
H 6.5811589518 14.4165737978 7.9164747974 
O 5.3208328578 11.7783798664 5.7434266685 
H 5.7653739246 12.1129985014 4.9258618034 
H 5.3145848943 10.0622097924 5.7187680693 
O 6.5753490765 12.7075203009 7.9351231853 
H 7.5028617606 12.3660543314 7.9115082444 
H 6.1290416115 12.3661646263 7.1207832476 
H 9.9197821241 12.3648252242 4.9158169227 
H 9.9279945920 12.3707429183 6.4994769105 
O 9.1186777203 11.8011286711 7.8894536125 
H 9.1265113961 10.8118432266 7.9082458889 
H 9.5973588076 12.0986142986 8.7020496267 
H 10.3841525987 14.4122313062 5.6984118396 
H 14.2077344780 14.4068200308 7.9034397925 
O 12.9417701305 11.7931765690 5.6770534479 
H 12.0134654194 12.1330490034 5.7037757130 
H 13.3842308507 12.1219093899 6.4979264058 
O 10.4020957366 12.7172089916 5.7036952706 
H 12.9278147589 10.0620673069 5.7014022439 
O 14.2000370516 12.6884403633 7.8937867252 
H 13.7557024767 12.3512116897 8.7106669405 
H 15.1262809454 12.3449247445 7.9183321775 
O 1.4719578732 1.9334339178 12.3253936031 
H 1.9550785636 1.5884777748 13.1170389799 
H 1.9512394630 1.5845080541 11.5343215490 
H 4.3817287732 4.9220707074 10.1111742576 
H 4.3871773976 1.5758707142 10.1139740580 
O 1.5152576234 4.6276242065 12.3261286914 
H 1.4903638008 3.6380038635 12.3246088777 
H 0.5723282111 4.9285283332 12.3254148511 
O 2.7712032559 1.0084785386 10.1426058873 
H 2.3046348122 1.3136738623 9.3257257134 
O 5.3083447829 4.5759303962 10.0802769617 
H 5.7542016228 4.9107125694 10.8968803212 
O 5.3264792743 1.8856820370 10.1089482942 
H 5.2937926499 2.8751756651 10.1045521494 
O 6.5651057958 0.9927226650 12.3299924642 
H 7.4904985611 1.3412870627 12.3048208915 
H 6.1178770658 1.3351541201 11.5171036928 
O 9.1019729133 1.8986736649 12.2705515817 
H 9.1130585382 2.8878847616 12.2955159697 
H 9.5698230668 1.5959353537 13.0879568891 
O 9.0911979585 4.5933177279 12.3127432783 
H 9.5858844565 4.9347057468 11.5266090638 
H 9.5752171785 4.9240637720 13.1090068801 
H 9.9399484791 1.3206859234 9.3012666476 
H 9.9324695522 1.3252802954 10.8822001225 
O 12.9215221835 4.6041233104 10.1363921488 
H 13.3942543444 4.9128510998 9.3239837571 
H 12.9401870825 3.6150403119 10.1081514450 
O 12.9585023435 1.9108088441 10.1198572789 
H 13.4029164483 1.5736867499 9.3022997821 
H 12.0311242356 1.5690345996 10.0924703081 
O 10.4200343599 0.9783204086 10.0951471565 
O 14.1954599255 1.0100389348 12.3346427260 
H 15.1254375045 1.3469096899 12.3148075509 
H 13.7598816845 1.3379949438 11.5089621193 
O 2.7827116997 5.4928725367 10.1014238065 
H 2.3084149174 5.1929164154 10.9159528441 
H 2.7696547846 6.4823945462 10.1207531945 
O 1.4994719347 9.1136924271 12.2929905758 
H 1.9474131059 8.7756200248 13.1067814051 
H 0.5742972588 8.7640063092 12.3155943430 
H 4.3882006241 8.7676396033 10.1078832742 
O 2.7914582325 8.1896720839 10.1126160492 
H 2.3000398765 8.5175522149 9.3184733584 
H 2.3033871965 8.5284868224 10.9035753791 
O 6.5591553666 5.5014146438 12.2881361305 
H 7.4893680778 5.1661374047 12.3147423205 
H 6.1169246107 5.1670044829 13.1062449400 
O 5.3317770368 9.0669041406 10.1108392332 
O 6.5862135786 8.2016836615 12.3307019700 
H 6.1142727309 8.5012415371 11.5142952103 
H 6.5741972559 7.2126143451 12.3110683861 
O 9.1272158292 9.1090972683 12.2871015321 
H 9.5666873525 8.7628484448 13.1040932295 
H 8.1993981739 8.7667913418 12.3053141047 
H 9.9411503885 8.5325340063 10.9048437030 
H 9.9462695390 8.5277263752 9.3216167904 
O 10.3742473085 5.4871825428 10.1277635807 
O 14.2139474950 5.4737498180 12.3420191244 
H 13.7464342502 5.1616850798 11.5282581725 
H 14.2013983886 6.4634375602 12.3078127503 
H 10.4069207770 6.4754957928 10.1229037517 
H 11.3142493384 5.1773625594 10.1237253123 
O 12.9780923259 9.0763641272 10.1038576879 
H 12.0337823122 8.7801055345 10.1121630519 
O 10.4335611398 8.1956141110 10.1155119591 
O 14.2352362712 8.1600432606 12.3033177205 
H 13.7439964654 8.5049982955 13.0898110188 
H 13.7578352885 8.5046585463 11.5081663124 
H 2.7541458096 14.3985029394 10.1187674539 
O 1.4810159975 11.8175260115 12.3344287770 
H 1.4882479571 10.8286573369 12.3157727517 
H 1.9532710345 12.1142581922 11.5160991435 
O 2.7480430318 12.6884324070 10.1358228439 
H 3.6783482091 12.3541981362 10.1127354056 
H 2.3089438465 12.3428634533 9.3186561660 
O 5.2912385430 11.7721779893 10.1152695492 
H 5.7770473105 12.1129380864 10.9059008869 
H 5.7736588786 12.1140117918 9.3228364257 
O 6.6009001748 12.6739597681 12.2972025924 
H 6.5861450723 13.6629813752 12.3151782051 
H 6.1266891656 12.3738987005 13.1114456115 
H 5.3087519217 10.0554760827 10.1121783330 
O 9.1552733860 11.7962587634 12.2942605850 
H 8.2159260647 12.1054004562 12.3013421656 
H 9.1223481762 10.8066384278 12.3011963591 
H 9.9575013184 12.3568000966 10.8954521265 
O 12.9607667062 11.7712004742 10.1029237553 
H 12.0310838028 12.1134538105 10.1204507679 
H 13.3989230225 12.1176574614 10.9180876307 
O 14.1877205380 12.6918223827 12.3351782482 
H 14.2111133329 13.6810895008 12.3289676135 
H 15.1305172318 12.3905647025 12.3277724703 
H 12.9536935045 10.0661214704 10.1143749205 
O 10.4351534580 12.6643240230 10.0852291733 
H 10.4095825256 13.6535457415 10.1069514958 
H 4.3845951853 4.9235104733 14.5180690653 
O 2.7336233116 1.0274944743 14.5183501684 
H 3.6773270354 1.3259887675 14.5250985417 
O 1.4739860398 4.6154279917 16.6827906820 
H 1.9468778029 4.9061606934 17.5026276298 
H 1.4798171701 3.6253124988 16.6949947047 
O 1.4508818931 1.9229895966 16.6974617147 
H 1.9428482351 1.5832827443 15.9082498588 
H 1.9368598707 1.5903056204 17.4923094861 
O 5.2757735675 1.9101474699 14.5295615046 
O 5.3267031239 4.6191804781 14.5262717567 
H 5.2979493112 3.6305618937 14.5296628844 
H 5.7647694676 1.5690154029 15.3196548341 
H 5.7595166791 1.5752078109 13.7352813018 
O 6.5492973754 1.0189526270 16.7198609907 
H 7.4903951828 1.3256697027 16.7157306400 
H 9.9236718610 1.3298029646 15.2935969364 
O 9.1239961397 4.5821483716 16.6987019318 
H 8.1971640938 4.9251720764 16.7266783611 
H 9.5700400069 4.9197835501 17.5144078777 
O 9.1065662652 1.8841581720 16.6841010810 
H 9.1178552703 2.8730210975 16.7156935550 
H 9.5715550141 1.5752658921 17.5013734643 
O 12.9262300665 4.6109557992 14.5530950119 
H 13.3924258915 4.9135716992 13.7347293712 
H 12.9334490407 3.6211615049 14.5243715794 
O 10.3882431386 1.0258866499 14.4746732399 
O 12.9357825329 1.9208910962 14.5283913373 
H 12.0072396315 1.5822355116 14.4960500557 
H 13.3840932466 1.5877329262 13.7116879835 
O 14.1771487090 1.0067271869 16.7416123034 
H 15.1074342156 1.3428243361 16.7105630922 
H 13.7338540147 1.3399189396 15.9229227388 
O 2.7909683975 5.5223424932 14.5109682401 
H 2.3030369475 5.1800981429 13.7203495747 
H 2.3073430198 5.1793672341 15.3029709525 
O 2.7482742444 8.2210566111 14.5131628981 
H 2.7707671990 7.2315687112 14.5142279055 
H 3.6906971916 8.5207951705 14.5164706142 
O 1.4946419296 9.1173455950 16.7297615503 
H 0.5683522723 8.7689800048 16.7027128502 
H 1.9433746216 8.7773115329 15.9165029476 
O 5.2953861620 9.1120702584 14.5197082402 
O 6.5892458891 5.5189521050 16.7214118606 
H 6.1042005343 5.1787575868 15.9288686756 
H 6.1027867467 5.1758494482 17.5105926354 
H 9.9326209288 5.1747971380 15.3160065199 
H 5.7801029835 8.7666021215 15.3091650534 
H 5.7728534370 8.7655432548 13.7261632460 
O 6.6073368604 8.2049857306 16.7047495463 
H 6.1348124913 8.5131981895 17.5163566340 
H 6.5803316400 7.2149507648 16.7260970674 
H 9.9247417779 8.5117027525 15.2942548271 
O 9.1351505678 9.0945595809 16.6820501927 
H 9.5845934449 8.7589419722 17.4955436240 
H 8.2070311909 8.7506408343 16.7136087212 
O 10.3797657858 5.5130669306 14.5013872814 
H 11.3078425611 5.1730525800 14.5305004254 
O 14.1932265484 5.5228270808 16.7360303119 
H 13.7491566159 5.1732436514 15.9231680385 
H 15.1207606524 5.1792425071 16.7115452347 
O 10.3907623715 8.2085217299 14.4745649300 
H 10.3830039647 7.2191893312 14.5048082046 
O 12.9535243828 9.0718557787 14.4900293916 
H 12.0113418492 8.7719731315 14.4901295400 
O 14.2191438214 8.2091760975 16.7260290744 
H 14.2061519483 7.2189438487 16.7025387708 
H 13.7482606305 8.5116628583 15.9112791124 
H 2.7577775823 14.4169348524 14.5214767632 
H 4.3859832714 12.1142109825 14.5226155380 
O 2.7888178936 12.7056866270 14.5233887686 
H 2.3080572853 12.3677908734 13.7279167125 
H 2.2987096641 12.3608709684 15.3112074485 
O 1.5083740592 11.8046912284 16.7084741809 
H 0.5683197674 12.1120329202 16.7115641297 
H 1.4777275074 10.8149171544 16.7083245624 
H 6.5823491064 14.4075653666 16.7204539660 
O 5.3290041979 11.8148147381 14.5199283046 
H 5.3093945548 10.8259314651 14.5214738419 
O 6.5710249934 12.7112561154 16.7379258615 
H 7.4977404683 12.3650980596 16.7072967994 
H 6.1217014765 12.3737834523 15.9233896262 
H 9.9339748155 12.3560570578 13.7069293674 
O 9.1007833216 11.8026004697 16.7200860202 
H 9.1142201880 10.8140278608 16.6936545614 
H 9.5710492306 12.1079317620 15.9044217496 
H 10.3767704664 14.4164407697 14.4994256614 
O 12.9092378664 11.7723185932 14.5097313670 
H 13.3851124249 12.1123958226 15.3066506513 
H 13.3976321190 12.1249889472 13.7243779921 
O 10.3723777344 12.7010454358 14.5237812368 
H 11.3005958597 12.3610695478 14.5042444646 
H 12.9305286963 10.0609142370 14.4932121219 
O 14.2051551749 12.6744083565 16.7026005101 
H 13.7390437693 12.3676740094 17.5199569679 
H 14.1898562349 13.6627551806 16.7262990370 

