&CONTROL
   calculation      = 'vc-relax'
   tstress          = .true.
   tprnfor          = .true.
   outdir           = './'
   pseudo_dir       = '/global/homes/p/ppiaggi/QuantumEspresso/pseudos'
/
&SYSTEM
   ecutwfc          = 150
   input_dft        = 'SCAN'
   ntyp             = 2
   nat              = 384
   ibrav            = 0
/
&ELECTRONS
   mixing_beta      = 0.5
   startingpot      = 'atomic'
   startingwfc      = 'atomic+random'
/
&IONS
/
&CELL
/

ATOMIC_SPECIES
O 15.999400004115753 O_ONCV_PBE_sr.upf
H 1.0079400002592869 H_ONCV_PBE_sr.upf

K_POINTS gamma

CELL_PARAMETERS angstrom
15.26508918444146 0.00000000000000 0.00000000000000
0.00000000000000 14.38178428584530 0.00000000000000
0.00000000000000 0.00000000000000 17.61692294696977

ATOMIC_POSITIONS angstrom
O 1.4814859353 1.8732289543 3.4862823223 
H 1.4950260204 2.8624338600 3.5036749753 
H 1.9558583248 1.5776475040 4.3025213901 
H 4.3954001349 4.9168710544 1.3167926929 
H 4.3878212711 1.5743471620 1.2928459274 
O 1.5114679679 4.5728566993 3.5252127660 
H 0.5867376638 4.9210566374 3.5093669003 
H 1.9543802006 4.9172175125 2.7096129020 
O 2.7836535108 0.9740120254 1.3003937538 
H 2.2999429847 1.3108964627 2.0945811345 
H 2.2918430459 1.3101272105 0.5107434294 
O 5.3371357993 4.6134246533 1.3177884130 
H 5.3080270295 3.6245161574 1.3070191674 
O 5.3143367859 1.9188448988 1.3141227293 
H 5.7551259547 1.5771146099 0.4972000756 
O 6.5843086926 1.0309897625 3.5210193588 
H 6.1139249967 1.3334613221 2.7052861817 
O 9.1426229047 1.8949445145 3.5170481607 
H 9.1179031252 2.8843201658 3.5162036235 
H 8.2006057543 1.5945903524 3.5095310221 
O 9.1284996521 4.5889473644 3.5336041017 
H 8.2008934046 4.9340795993 3.5052528882 
H 9.5720368039 4.9194904964 2.7141741019 
H 9.9398955361 1.3265509036 2.1001410330 
O 10.3813193845 0.9813689808 1.2864017235 
O 12.9187688499 4.5887440526 1.3091259054 
H 13.4093020191 4.9193915960 0.5165578411 
H 13.4055190265 4.9287239260 2.0990725393 
O 12.9079686194 1.8922842085 1.2840920832 
H 13.3852826352 1.5856721272 2.0942213287 
H 12.9267148249 2.8812626574 1.3096960301 
H 11.3077330486 1.3299438172 1.3064935726 
O 14.1845152383 1.0157069286 3.4976848310 
H 15.1272906048 1.3139151197 3.5034419728 
O 2.7781566675 5.4699766095 1.3372045995 
H 2.7586578932 6.4591395845 1.3056032303 
H 2.3107723669 5.1577880450 0.5236326858 
O 1.4851455259 9.0860669868 3.4667702411 
H 1.9456503913 8.7791494219 4.2854919206 
H 4.3819743815 8.7666489234 1.2934442472 
O 2.7813651572 8.1591054159 1.2940132518 
H 2.2963169260 8.4995488257 0.5025269236 
H 2.3008151245 8.5129068422 2.0830328763 
O 6.6049447428 5.4932835390 3.5201078481 
H 6.5813274226 6.4821479926 3.4936904230 
H 6.1272873040 5.1821956318 2.7106162309 
H 9.9332998638 5.1534002885 0.5009712858 
O 5.3216523658 9.0760859819 1.2955193523 
O 6.5896275828 8.1902689987 3.4960985827 
H 6.1027828881 8.5283705373 2.7040090857 
H 6.1015871043 8.5246519941 4.2881642124 
O 9.1316204908 9.1029645267 3.4748721803 
H 8.2014981593 8.7685504291 3.4999174647 
H 9.5715017830 8.7608801681 4.2917116206 
H 9.9182669054 8.5039040311 2.0908753805 
O 14.2359461770 5.4928573704 3.4936634114 
H 14.2223772699 6.4810517288 3.5096450637 
H 13.7593824192 5.1941496018 4.3074425620 
O 10.3740181603 5.4962231222 1.3176065288 
H 11.3048372687 5.1649362253 1.2949285837 
O 12.9354706196 9.1070998045 1.3193474588 
H 13.3826947904 8.7588386711 0.5086756548 
H 12.0093859342 8.7622731758 1.2950431738 
O 10.3906845891 8.2036510450 1.2746192488 
H 10.3743258330 7.2150428686 1.2934883245 
O 14.1972724453 8.2006005847 3.5244020144 
H 13.7508242290 8.5346760979 2.7079026788 
H 15.1257599202 8.5389131791 3.4939892751 
H 1.4971516188 10.0753547923 3.4944253456 
H 4.3835117256 12.1125265733 1.2967910717 
O 1.5036775604 11.7773498700 3.4780463483 
H 1.9502562713 12.1223567100 4.2911896257 
H 0.5746631441 12.1133597183 3.5095438402 
O 2.7809332179 12.6585493723 1.2773840682 
H 2.3064492482 12.3595835722 2.0928023630 
H 2.7653387467 13.6479780287 1.2990948235 
H 6.5684839330 14.4240685960 3.4986265300 
O 5.3132682917 11.7732983646 1.2673038287 
H 5.7557501558 12.1113202154 2.0845015430 
O 6.5571337544 12.7089100337 3.4806721544 
H 6.1126072957 12.3611216931 4.2933079874 
H 7.4841920661 12.3669523187 3.5034507895 
H 5.2887566253 10.0653251775 1.2935686040 
O 9.1035509058 11.8089228762 3.5259521836 
H 9.5750188109 12.1129297339 2.7114409414 
H 9.1207758405 10.8206684841 3.5024371727 
O 10.3630342389 12.6709114568 1.3000855900 
H 14.2058611149 14.4086964210 3.5060186868 
O 12.9212954449 11.7968872730 1.3325815675 
H 13.3919712496 12.1000227379 0.5177413173 
H 12.9290980390 10.8076244551 1.3044334395 
O 14.2242335185 12.6962444294 3.5190556264 
H 13.7390747382 12.3575938331 4.3107454746 
H 13.7405589342 12.3514908750 2.7282622532 
H 10.3970379319 13.6599453075 1.3022767109 
H 11.3023566956 12.3614643590 1.3034588769 
H 4.4124371077 4.9291539172 5.6972186089 
O 2.7621336287 1.0007365972 5.6879728826 
H 3.6890031636 1.3438287616 5.7160170941 
H 2.3161654282 1.3385397944 6.5035924427 
O 1.5268394758 4.6118768301 7.8919821669 
H 0.5836625810 4.9110209369 7.8908167725 
H 1.5000560045 3.6224837993 7.8990129800 
O 1.5063848847 1.9166329004 7.8913535691 
H 1.9495608697 1.5771116655 8.7071010169 
H 0.5771983373 1.5733423675 7.9150702575 
O 5.3122987166 1.9012388068 5.7363379356 
O 5.3426561470 4.5942821011 5.7238538086 
H 5.7832886829 4.9334434291 4.9057830429 
H 5.7715743689 1.5955102920 4.9153978570 
H 5.3283877528 2.8903331400 5.7095110222 
O 6.5887412838 1.0182135221 7.9320380516 
H 6.1272949141 1.3307448962 7.1138950953 
H 9.9294981920 1.3384789104 4.9163132568 
O 9.1213621642 4.6005684548 7.8925878435 
H 9.1242390389 3.6121251416 7.9201435493 
H 9.5915461232 4.9024882619 8.7088698844 
O 9.1308653395 1.8970907020 7.9458444024 
H 8.1999787474 1.5625961912 7.9168996865 
H 9.5724980447 1.5658395547 7.1256857133 
O 10.3795166942 0.9949655465 5.7285052741 
O 12.9649861218 4.6234649817 5.7052014581 
H 12.0212415928 4.9216574566 5.7078389353 
H 12.9414219725 3.6343834152 5.7029104910 
H 11.3071115992 1.3354865957 5.6973552332 
O 12.9190481448 1.9224375871 5.6953950742 
H 13.4081706654 1.5823754758 6.4836918241 
H 13.4001813577 1.5797276535 4.9021789695 
O 14.2448850177 1.0242048079 7.8815740200 
H 13.7688514203 1.3273882514 8.6938465554 
O 2.8031966657 5.5099736383 5.7076607307 
H 2.3133875247 5.1657083881 6.4961848744 
H 2.3201147113 5.1705431360 4.9145078890 
O 2.7680498024 8.2054210443 5.6819423846 
H 2.7609061868 7.2159396094 5.7123494665 
H 2.2996289928 8.5105247339 6.4973348856 
H 4.3706227331 8.7616742725 5.7093344167 
O 1.4715047465 9.0795289588 7.8931920535 
H 1.9413636560 8.7761679136 8.7095082881 
O 6.5769591056 5.5160452341 7.9260165769 
H 7.5045704733 5.1763139904 7.9072092226 
H 6.1397111393 5.1771119996 7.1056814184 
H 9.9324394026 5.1645594813 4.9190231259 
H 9.9411615220 5.1579422106 6.5029202862 
O 5.2980457103 9.1066158699 5.6868160728 
H 5.7400050039 8.7665094577 6.5032661410 
O 6.5341055171 8.2074981076 7.9208096643 
H 6.5687735954 7.2183402141 7.9137601172 
H 7.4742171091 8.5167705775 7.9156623940 
O 10.3565753083 8.2076113155 5.7086589410 
O 9.0834762491 9.0744725403 7.9300753372 
H 9.5588531333 8.7681598540 7.1186661065 
H 10.3837769522 7.2190200903 5.7115825799 
O 10.4210572355 5.5026778933 5.7101817850 
O 14.2488213031 5.5024324072 7.8966705213 
H 13.7611646616 5.1647024795 8.6873278398 
H 13.7575557740 5.1676721368 7.1051276640 
H 11.2985722701 8.5092829552 5.7142249468 
O 12.8963148307 9.1048010158 5.7178953829 
H 13.3898729526 8.7629567640 6.5046452926 
H 13.3839880474 8.7769896816 4.9234145250 
O 14.1878688209 8.2044319523 7.8987427047 
H 14.2197928603 7.2155948275 7.8980334224 
H 15.1281438615 8.5126790064 7.9058202739 
O 2.7362214002 12.6836834567 5.6903630300 
H 2.7667632953 13.6721960771 5.6964031204 
H 3.6764482899 12.3777941406 5.6937561307 
O 1.5032282729 11.7815173065 7.9251716203 
H 0.5754108067 12.1243415607 7.9024002242 
H 1.9451437978 12.1221513837 7.1097711079 
H 1.4897699494 10.0680385279 7.9129532781 
H 6.5734504759 14.4118440341 7.9009800582 
O 5.2922659826 11.8029790747 5.6727097464 
H 5.2992476778 10.8137596502 5.7004097378 
H 5.7638084382 12.1044000147 6.4881784952 
O 6.5635013756 12.6957743908 7.8795145891 
H 7.4905582591 12.3551291190 7.9086730287 
H 6.1184313874 12.3548914494 8.6948546223 
H 9.9255175060 12.3773930078 4.9174467817 
O 9.1073656478 11.7675772255 7.9162132339 
H 9.5838200291 12.1176720260 7.1230070557 
H 9.5920620594 12.1131383789 8.7046956271 
H 9.1136961178 10.0632654034 7.9096537639 
H 14.2279662418 14.4164715257 7.9055591490 
O 12.9468267185 11.8086515118 5.7243368238 
H 12.9160322812 10.8197761924 5.7255847221 
H 12.0064595821 12.1152346681 5.7222109738 
O 10.3895828762 12.6839209612 5.7351917375 
H 10.3826244289 13.6730439717 5.7050731693 
O 14.2439665930 12.7150402740 7.9058666710 
H 13.7518050551 12.3751762720 7.1183990036 
H 13.7600213020 12.3738318727 8.6982154876 
O 1.5007248150 1.9309458241 12.3356736956 
H 0.5755240807 1.5797148061 12.3039193464 
H 1.9518237664 1.5887940201 11.5255359247 
O 1.4767952800 4.6259392890 12.3417546442 
H 1.4872714538 3.6368311894 12.3134344996 
H 1.9447056670 4.9303194059 11.5257288026 
O 2.7488866955 1.0177243158 10.1172022023 
H 3.6905875589 1.3228464294 10.1152528643 
O 5.2792943640 4.5838037064 10.1063195046 
O 5.2883748179 1.8904858047 10.1341063867 
H 5.7665447251 4.9231950217 9.3160477007 
H 5.7653197884 4.9235942299 10.8978339680 
H 5.3022840791 2.8796630530 10.1097429659 
H 5.7612445494 1.5864374409 9.3207438574 
O 6.5853505250 0.9789532978 12.3116136796 
H 6.1013332637 1.3256820656 13.1012080271 
H 6.1050890800 1.3251955204 11.5191195783 
O 9.1213191449 1.9124717181 12.3058796335 
H 8.1941933119 1.5697144614 12.3238840361 
H 9.5626686503 1.5712787030 13.1218176298 
O 9.1417834715 4.6031991750 12.3029272367 
H 9.1093759332 3.6142665962 12.3127854725 
H 8.2023406619 4.9122228689 12.3086444605 
H 9.9357226926 1.3253435098 9.3325638823 
H 9.9389858479 1.3305038657 10.9147234862 
O 12.9506930288 4.5794416846 10.0854304370 
H 12.0215992173 4.9189209339 10.1094599646 
H 13.3918164111 4.9255940537 10.8999586709 
O 12.9739789006 1.8842620259 10.1030475314 
H 12.0328079230 1.5805020379 10.1128633311 
H 12.9449019553 2.8732970632 10.1077131949 
O 10.4289910178 0.9959776645 10.1242157032 
O 14.2454852912 1.0158667097 12.3250860606 
H 13.7701907076 1.3239889867 11.5140050393 
O 2.7403932290 5.5207382055 10.1275074696 
H 2.3033109045 5.1774199464 9.3095749500 
H 3.6686389019 5.1820542125 10.1058105659 
O 1.4682558499 9.0728111087 12.3338840880 
H 1.9408430620 8.7702330550 11.5183689956 
O 5.2625517441 9.0957882366 10.1090426586 
O 2.7221910077 8.2138046702 10.1180210570 
H 3.6653119116 8.5158403323 10.1132481099 
H 2.7502672578 7.2245342523 10.1120495374 
O 6.5828869695 5.4764439487 12.2919204548 
H 6.1151851554 5.1764909415 13.1099008554 
H 6.5678764868 6.4660477810 12.3144142094 
H 9.9371835086 5.1631251810 10.9062705914 
H 5.7483836417 8.7511590329 9.3180782419 
H 5.7441016324 8.7543224476 10.9023493262 
O 6.5455415912 8.1694890627 12.2936192494 
H 7.4738770407 8.5106682946 12.3157700262 
H 6.1040182908 8.5111565084 13.1104138323 
O 9.0730785747 9.1061348974 12.3058256913 
H 9.5571094254 8.7678272235 11.5128190346 
H 9.5661151105 8.7715896420 13.0948204968 
O 10.3546641719 8.1708745741 10.1274847754 
H 9.9111008377 8.5103519639 9.3113519096 
O 14.1826040352 5.4870226949 12.3098273672 
H 14.2001488044 6.4765512287 12.3139597925 
H 15.1261367755 5.1910992177 12.3139517684 
O 10.4106107553 5.4703805533 10.0934852197 
H 10.3849203219 6.4590458140 10.1149573165 
O 12.8985556027 9.0964527765 10.0924242043 
H 13.3824763519 8.7610220676 10.8862815463 
H 13.3888129639 8.7568497542 9.3036484006 
H 11.2833126563 8.5071323637 10.0975667867 
O 14.1828948310 8.1806396130 12.2888672534 
H 15.1121323430 8.5183624653 12.3092988968 
H 13.7454462720 8.5257306569 13.1065046014 
H 2.7746100085 14.4112651926 10.1132678025 
H 1.4862315136 10.0615410470 12.3128580114 
H 4.3908628408 12.1033652044 10.1029331127 
O 1.5064216225 11.7742966492 12.2844283128 
H 1.9448552819 12.1127006604 13.1032554100 
H 0.5778248489 12.1145725911 12.3036418459 
O 2.7995726945 12.6927150413 10.1043939481 
H 2.3077669502 12.3611984088 9.3127693651 
H 2.3110732424 12.3574613876 10.8964179965 
O 5.3335311286 11.8018056446 10.1021783599 
H 5.3056702576 10.8132971195 10.1036071841 
O 6.5989035195 12.6749663854 12.3244480086 
H 6.1267253215 12.3684924409 11.5114882668 
H 6.5736004101 13.6645066963 12.3041356678 
O 9.1464478040 11.8091655772 12.3193388527 
H 8.2062176188 12.1190181998 12.3129347738 
H 9.1098692658 10.8207117003 12.3120826937 
H 9.9483464289 12.3766063498 10.9118002076 
H 14.2259994934 14.4088379075 12.2947527653 
O 12.9704527340 11.8037126437 10.0977590125 
H 12.9355786349 10.8153716256 10.0926654589 
H 12.0300453678 12.1124072742 10.1056460278 
O 14.2429396947 12.7005689666 12.2961464983 
H 13.7567736474 12.3595326103 11.5052399020 
H 13.7560326884 12.3642038166 13.0875148136 
O 10.4243767069 12.6817436519 10.1006614973 
H 10.4076968401 13.6706666100 10.1246621608 
H 4.3857986700 4.9325283288 14.5346518647 
O 2.7412590653 0.9826604360 14.5340324203 
H 2.2977324974 1.3256617153 13.7190405133 
H 3.6685022678 1.3252851594 14.5080010641 
O 1.4868416302 4.5940692626 16.7499628232 
H 1.9500349409 4.9028898193 15.9311409695 
H 1.4951517625 3.6055155784 16.7190750372 
O 1.4942892454 1.8947578708 16.7409496884 
H 1.9339725383 1.5597970610 15.9207045111 
H 0.5633589200 1.5621980867 16.7146960462 
O 5.2825100947 1.8958226722 14.4872485106 
O 5.3155559550 4.5964100989 14.5039396012 
H 5.7614863027 4.9375694141 15.3174298822 
H 5.2995259438 2.8839676397 14.5139140932 
H 5.7545891758 1.5888153863 15.3010213052 
O 6.5415133153 1.0204743321 16.7024122249 
H 7.4840129078 1.3212313962 16.7084776353 
O 9.1130074632 4.6001787841 16.7330663742 
H 9.1213514101 3.6108706041 16.7083347128 
H 9.5888709490 4.9034127678 15.9219060044 
O 9.0863323487 1.9046573973 16.7139583815 
H 9.5716429375 1.5672530751 17.5066749684 
H 9.5769590934 1.5634832943 15.9251877511 
O 10.3710335750 1.0105536985 14.5255803605 
O 12.9553176745 4.5683325780 14.5331698573 
H 12.0296049540 4.9159240236 14.5041706427 
H 13.4030205746 4.9127191209 13.7212324800 
H 11.3123752991 1.3125390553 14.5232329230 
O 12.9345183224 1.8798632963 14.5368878365 
H 13.4065888145 1.5759534798 13.7238559792 
H 12.9440603626 2.8694501871 14.5095494742 
O 14.2195642324 0.9796806886 16.7191555910 
H 13.7435398717 1.3246454584 15.9232741242 
H 13.7350059398 1.3279726351 17.5067608400 
O 2.7629010240 5.4761340965 14.5524620277 
H 2.2989091431 5.1706914947 13.7333898779 
H 2.7468441437 6.4653638227 14.5243013787 
O 2.7338800747 8.1652146791 14.5314994489 
H 3.6594384288 8.5122482463 14.5081852432 
H 2.2895567223 8.5093991498 13.7171641845 
O 1.4572655744 9.0604627469 16.7329898078 
H 1.9285406983 8.7555435115 15.9187332390 
O 5.2801470114 9.0759170956 14.4896355541 
O 6.5773618237 5.5290144378 16.7113035233 
H 6.1312983852 5.1845229067 17.5232402061 
H 7.5005227189 5.1755351869 16.7305690303 
H 9.9487076269 5.1707428930 13.7120835279 
H 5.7594656713 8.7770322010 15.3013077232 
O 6.5998082181 8.2218454763 16.6902530002 
H 6.1268123757 8.5261865612 17.5037964077 
H 6.5902944697 7.2328435503 16.7215845035 
H 9.9408254696 8.5217306058 15.2929217017 
O 9.1361022883 9.1146395515 16.6874039729 
H 9.5777917746 8.7722718878 17.5035475538 
H 8.2064870602 8.7760647659 16.7143043937 
O 10.3830395031 8.1823373324 14.4766376265 
O 10.4231815047 5.4754107925 14.5239638358 
H 10.4035335234 6.4639336083 14.4979358379 
O 14.2100960028 5.4915943788 16.7404573100 
H 15.1392586350 5.1528649795 16.7180331859 
H 13.7690512640 5.1509758169 15.9235671951 
H 11.3105073792 8.5234222330 14.5017507313 
O 12.9263141805 9.0775977302 14.4891122542 
H 13.3894037653 8.7674201430 15.3060396077 
O 14.1743034810 8.1930985859 16.7236694562 
H 15.1148252486 8.5016228278 16.7177804729 
H 14.2087974140 7.2049448457 16.7202648709 
O 2.7312828441 12.6649253679 14.5201805245 
H 2.7569730535 13.6540523929 14.5187644438 
H 3.6741241353 12.3649227570 14.5146659316 
O 1.4580436866 11.7554580964 16.7090043786 
H 1.9445890615 12.1002409366 15.9190965023 
H 1.9450087110 12.0946545063 17.4993241103 
H 1.4768314691 10.0497327626 16.7080496839 
O 5.2750698086 11.7725171552 14.5036093365 
H 6.5693609476 14.4134031548 16.7017555759 
H 5.7627417897 12.1118316789 13.7134021033 
H 5.7628437338 12.1122849250 15.2944832039 
H 5.2944536839 10.0651791854 14.5089323525 
O 6.5649842207 12.7029109124 16.6777139068 
H 7.4945196432 12.3657229298 16.7054628755 
H 6.1233968893 12.3641882304 17.4948675490 
H 9.9327383126 12.3542238189 13.7195687556 
H 9.9370430371 12.3539874128 15.3028358980 
O 9.1054531881 11.8036950832 16.6905157160 
H 9.1217810506 10.8136729809 16.7136994276 
H 9.5736400036 12.1080751840 17.5069629828 
H 10.3978094879 14.4030399731 14.5201738077 
O 12.9563839709 11.7712581690 14.4890222999 
H 12.0266763942 12.1077034122 14.5136328686 
H 13.3962730826 12.1095465065 15.3081756358 
O 10.4200757713 12.6955291149 14.5103414600 
H 12.9455961790 10.0670148443 14.5187625234 
O 14.1827036382 12.6600905000 16.7189290538 
H 14.2054406113 13.6488297838 16.7207562647 
H 15.1244849944 12.3585536535 16.7152672813 

