&CONTROL
   calculation      = 'vc-relax'
   tstress          = .true.
   tprnfor          = .true.
   outdir           = './'
   pseudo_dir       = '/global/homes/p/ppiaggi/QuantumEspresso/pseudos'
/
&SYSTEM
   ecutwfc          = 150
   input_dft        = 'SCAN'
   ntyp             = 2
   nat              = 384
   ibrav            = 0
/
&ELECTRONS
   mixing_beta      = 0.5
   startingpot      = 'atomic'
   startingwfc      = 'atomic+random'
/
&IONS
/
&CELL
/

ATOMIC_SPECIES
O 15.999400004115753 O_ONCV_PBE_sr.upf
H 1.0079400002592869 H_ONCV_PBE_sr.upf

K_POINTS gamma

CELL_PARAMETERS angstrom
15.25460520019354 0.00000000000000 0.00000000000000
0.00000000000000 14.37618906590594 0.00000000000000
0.00000000000000 0.00000000000000 17.61923720481451

ATOMIC_POSITIONS angstrom
O 1.5107219847 1.8983831175 3.5194472973 
H 1.9491736124 1.5599582316 2.6999202971 
H 0.5806649690 1.5635115981 3.4977793082 
H 4.3985477413 4.9323610540 1.3002109611 
H 4.3871800788 1.5922891392 1.2983916871 
O 1.4751148221 4.6012801440 3.4881389127 
H 1.9529652792 4.9009950129 4.3008107760 
H 1.4949886034 3.6128296473 3.5037106119 
O 2.7729701289 1.0103956104 1.3132228053 
H 2.2994531922 1.3108555797 0.4973859561 
O 5.3387374059 4.6268633368 1.2981868403 
H 5.3078609708 3.6373953815 1.3031076642 
O 5.3130689435 1.9377571642 1.2828630551 
H 5.7529917163 1.5852580828 2.0962387311 
O 6.5747470295 1.0186414114 3.4684745014 
H 6.1118893360 1.3268214954 4.2856420803 
O 9.1313743987 1.9093077941 3.5131059721 
H 8.2027832882 1.5715887236 3.4844729988 
H 9.5787545387 1.5637583164 2.7015509079 
O 9.1246551824 4.6041536326 3.5190434244 
H 9.1290157428 3.6151465706 3.4906389889 
H 9.5926203716 4.9066500665 2.7021116045 
H 9.9421684116 1.3151207869 0.5015787494 
O 10.3881612883 0.9723649506 1.3158350034 
O 12.9534823874 4.5718365328 1.3164163860 
H 13.3998595578 4.9132118792 0.5015893697 
H 12.0255764966 4.9156472071 1.2870964170 
O 12.9243053092 1.8840043073 1.3235556456 
H 13.3924537986 1.5794440042 0.5074637319 
H 12.9371096535 2.8741851261 1.2962878553 
H 11.3139015786 1.3195151354 1.2913719328 
O 14.2245237053 0.9878220727 3.5090069651 
H 13.7426249871 1.3284749575 2.7149190601 
H 13.7392683406 1.3323969417 4.2988015163 
O 2.7716346802 5.4831464978 1.2772265474 
H 2.3026879571 5.1738756261 2.0904351138 
H 2.7529856955 6.4726030343 1.3070514044 
O 1.5056346310 9.0729770898 3.4977001111 
H 0.5646482033 8.7711631268 3.5047445761 
H 4.3915512651 8.7747974042 1.3134671125 
O 2.7801978770 8.1748915312 1.3109012406 
H 2.2929845068 8.5183351988 2.1012181904 
H 2.2964949117 8.5153177574 0.5192160495 
O 6.5903795992 5.5113700615 3.5255836589 
H 7.5180136519 5.1685147870 3.4987232755 
H 6.1437484557 5.1743116188 2.7103568017 
H 9.9516510249 5.1612090584 0.4920718273 
O 5.3199855669 9.1132357416 1.2878391022 
H 5.7615615458 8.7723230987 2.1051052516 
O 6.5823218268 8.2131868209 3.4847272263 
H 6.5822865375 7.2240740103 3.5081814776 
H 6.1109296934 8.5105619232 4.3030110226 
O 9.1220225330 9.1010086306 3.4628712117 
H 8.1905346493 8.7691458983 3.4900440084 
H 9.5586841022 8.7652891976 4.2839886948 
H 9.9315092141 8.4980006391 2.0791835618 
H 9.9318600659 8.5071209792 0.4978431814 
O 14.1849728476 5.4933703047 3.5321554877 
H 15.1137290789 5.1545453017 3.5101317441 
H 13.7452246186 5.1549349504 2.7132948303 
O 10.4242969207 5.4672044963 1.3063952271 
H 10.4045729669 6.4568443897 1.2806958043 
O 12.9503390780 9.0986829180 1.2816351582 
H 13.3828374174 8.7575115260 2.1028672374 
H 12.0211127281 8.7602927535 1.2976249221 
O 10.4194170712 8.1627097734 1.2870977835 
O 14.1924116323 8.1987788492 3.4946880279 
H 13.7172713508 8.5017169889 4.3069847103 
H 14.1862311371 7.2101490099 3.5201172835 
H 2.7654860012 14.3979500060 1.2928771754 
H 1.4803590783 10.0632816010 3.5054123874 
O 1.5072425102 11.7599071286 3.4894453608 
H 1.9503252900 12.1037161140 4.3035404510 
H 0.5822832932 12.1112002827 3.5080286914 
O 2.7626988020 12.6814460182 1.2764758162 
H 3.6951620502 12.3503912798 1.3057749525 
H 2.3205141299 12.3431744389 2.0933185363 
H 6.5632176603 14.4052295233 3.5020484743 
O 5.3032678698 11.8106142815 1.2859288827 
H 5.3152233986 10.8213609620 1.3117514906 
H 5.7665350009 12.1153015341 2.1059259537 
O 6.5602188912 12.7051082436 3.4918360181 
H 7.4880524470 12.3646889348 3.5134013690 
H 6.1165363821 12.3566326980 4.3059677056 
O 9.1120187799 11.8030550762 3.5254994913 
H 9.1184789975 10.8140782816 3.4967971769 
H 9.5832348532 12.1044579550 2.7084934303 
H 9.9341359721 12.3534195276 0.5081302695 
O 12.9715622608 11.7938591786 1.2983561139 
H 12.9433429202 10.8046396048 1.3001701716 
H 12.0299200213 12.0947154534 1.3002405598 
O 14.2318597693 12.6716691838 3.5229595925 
H 13.7593388781 12.3677853740 2.7095028088 
H 14.2081621325 13.6608866858 3.5059691935 
O 10.4034867613 12.6559701293 1.3243277100 
H 10.3945678495 13.6452112958 1.2975382577 
O 2.7539070193 0.9835851663 5.7295147535 
H 3.6797681696 1.3305913785 5.7052078028 
H 2.3109674455 1.3150759346 4.9098131655 
O 1.4743289044 4.6019138496 7.9288544354 
H 1.4858861797 3.6118762784 7.9070058474 
H 1.9471724444 4.9020739485 7.1135073911 
O 1.4981653576 1.9134709964 7.9294979790 
H 0.5691551868 1.5733692128 7.8992209103 
H 1.9435497577 1.5755353316 7.1137966509 
O 5.2962142060 4.5998137835 5.7144355504 
O 5.2868027073 1.8960646310 5.6873996700 
H 5.7784399521 4.9363582545 6.5097772088 
H 5.7878665896 4.9350255757 4.9248765088 
H 5.3097952535 2.8840345436 5.7136058263 
H 5.7628018623 1.5859319810 6.4971540126 
O 6.5532863289 1.0162076129 7.9033698617 
H 7.4936822110 1.3218639976 7.9071213366 
H 9.9261899240 1.3217085792 4.9049414583 
O 9.1012830400 4.5810331506 7.9130613701 
H 9.5898661713 4.9227328569 8.7014542481 
H 9.5829895447 4.9207782224 7.1187037343 
O 9.1126257560 1.8879778801 7.9328431478 
H 9.1274826594 2.8772309705 7.9054827115 
H 9.5785927831 1.5812385064 7.1158160117 
O 12.9335535763 4.5767326873 5.7453022664 
H 13.3764445080 4.9089855646 4.9262023735 
H 12.0053927284 4.9190751177 5.7161990671 
O 10.3929626241 1.0181141149 5.7226679528 
O 12.9528541591 1.8860530106 5.7089551070 
H 12.9198511355 2.8756291855 5.7134698137 
H 12.0127079333 1.5786057889 5.7029908755 
O 14.2212956129 1.0193508150 7.9162524424 
H 13.7450315939 1.3231468100 7.1034715716 
O 2.7452387982 5.4623302886 5.7052274953 
H 3.6900575768 5.1690358068 5.7085244538 
H 2.7623674340 6.4513624884 5.7010495291 
O 2.7737266718 8.1625356298 5.6929027576 
H 2.2919131799 8.5081363326 4.9014666737 
H 2.2899058059 8.5068953926 6.4834337942 
H 4.3795913875 8.7563256791 5.7008701235 
O 1.4639480028 9.0749457878 7.8731632814 
H 1.9380182438 8.7769915556 8.6889649166 
O 6.5726286362 5.5156763259 7.9090600253 
H 6.1312708427 5.1714083626 8.7237581217 
H 7.5014698925 5.1765227616 7.9282058496 
H 9.9388631469 5.1718920442 4.9082372334 
O 5.3074756932 9.0979524997 5.6812806671 
H 5.7465012871 8.7574545984 6.4999900026 
O 6.5316338472 8.2081788340 7.9113886070 
H 7.4722240249 8.5159924974 7.9172355798 
H 6.5664809708 7.2191084707 7.9226025154 
O 10.3493565429 8.1796016836 5.6819425410 
H 9.9000304347 8.5150341116 6.4963257063 
O 9.0829845081 9.0723821885 7.8949751432 
H 9.5641612343 8.7628358937 8.7022804313 
O 10.4002894422 5.4784155191 5.7276963627 
H 10.3820470836 6.4671057485 5.7032649485 
O 14.1927888890 5.5113619559 7.9440950984 
H 13.7454694163 5.1686200851 7.1313591830 
H 15.1201999853 5.1678605958 7.9146138493 
H 11.2760376792 8.5254738035 5.7160538084 
O 12.8815244143 9.0728878277 5.6965272799 
H 13.3586283408 8.7675193526 6.5077827711 
O 14.1680038245 8.2051919058 7.9079360502 
H 15.1072008659 8.5169993787 7.9001376270 
H 14.2035964184 7.2164442318 7.9125780455 
O 2.7379433410 12.6675997810 5.7165466215 
H 3.6793631926 12.3637825647 5.7142796030 
H 2.7665623471 13.6572361658 5.7182909641 
O 1.4619432054 11.7663811784 7.9013580500 
H 1.9508683839 12.1017368734 8.6935285848 
H 1.9502996987 12.1104463850 7.1118684884 
H 1.4788721209 10.0647037912 7.8910936245 
H 6.5825976126 14.4036408445 7.8995438543 
O 5.2964025353 11.7973239620 5.6783962693 
H 5.7663945676 12.0989196742 6.4952804170 
H 5.3054042244 10.8082059862 5.7022680559 
O 6.5665581460 12.6941692816 7.8767906770 
H 7.4950328064 12.3547486126 7.9022364275 
H 6.1276539105 12.3573541159 8.6973499694 
H 9.9360765005 12.3565406428 4.9082901461 
O 9.1037957694 11.7630005254 7.9085096069 
H 9.5858315036 12.1079704032 8.6994278507 
H 9.5878123774 12.1036380727 7.1159551005 
H 9.1139781353 10.0615608546 7.9170295035 
H 10.3793872661 14.4052014559 5.6988659975 
H 14.2041307605 14.4068978280 7.8943502323 
O 12.9110788794 11.7617499936 5.6975006998 
H 13.3965840822 12.1010380455 6.4903858797 
H 13.3989482477 12.1006712917 4.9070388563 
O 10.3761691329 12.6959190204 5.7271546398 
H 11.3054757416 12.3589296274 5.6993158147 
H 12.9111080523 10.0626479457 5.7138698820 
O 14.1861648523 12.6914311530 7.8711439626 
H 13.7450505807 12.3593551909 8.6917455478 
H 15.1162462534 12.3564112709 7.8997806521 
O 1.5067919703 1.9075555308 12.2774809795 
H 1.9494259669 1.5765393533 13.0965271576 
H 0.5775043472 1.5685271304 12.3074159438 
H 4.3893741570 4.9094447661 10.1238192648 
H 4.3925383644 1.5814021255 10.1007739052 
O 1.4711616895 4.6102601631 12.3336234806 
H 1.4825977283 3.6215118354 12.3033184794 
H 1.9374519383 4.9156565175 11.5163821037 
O 2.8001833357 0.9861094370 10.0993294635 
H 2.3109445100 1.3189293405 10.8913149904 
H 2.3096521270 1.3223695577 9.3090478364 
O 5.3306577025 4.6077063778 10.1298631151 
H 5.3045249922 3.6175418703 10.1212903594 
O 5.3214596600 1.9214349674 10.1281712659 
H 5.7652811972 1.5815153035 9.3127745087 
O 6.5524486500 1.0105517899 12.3476263404 
H 7.4835114434 1.3417375103 12.3179811526 
H 6.1137710926 1.3440941364 11.5262542391 
O 9.0962598286 1.9217319802 12.3141634583 
H 9.5811214795 1.5884260413 11.5196057153 
H 9.5830154165 1.5794422678 13.1036731972 
O 9.1479942046 4.6236472794 12.3127336584 
H 9.1244942062 3.6348638260 12.3169412233 
H 8.2042132772 4.9234764999 12.3096627228 
H 9.9425957783 1.3479052508 9.3090619934 
O 10.3836628860 1.0114813173 10.1290443320 
O 12.9310760020 4.6185494720 10.1423271525 
H 12.9523839912 3.6290945920 10.1214318136 
H 13.4051847011 4.9221417707 9.3277842107 
O 12.9335623278 1.9251930692 10.1107676715 
H 13.4092175826 1.5820215749 9.3147895392 
H 13.4159919172 1.5739261058 10.9001342965 
H 11.3127581381 1.3468495366 10.1055235714 
O 14.2253266470 1.0179259664 12.2901118591 
H 13.7576519736 1.3279884015 13.1047009423 
O 2.7642719692 5.4768747096 10.1282466327 
H 2.2974283600 5.1645467034 9.3136346585 
H 2.7498187936 6.4640865087 10.0956317779 
O 1.4965965109 9.1199008930 12.3011277057 
H 1.9445088905 8.7730830566 13.1111707229 
H 0.5713605590 8.7731254441 12.3262356887 
O 5.2705213609 9.1200161425 10.1096807487 
O 2.7377691719 8.1922385168 10.0731965560 
H 3.6662386104 8.5318421534 10.1028366259 
H 2.2958658177 8.5284341899 10.8901801834 
O 6.6142522489 5.5089093456 12.3071897334 
H 6.1340578670 5.1793622435 13.1061860783 
H 6.1208162598 5.1610537163 11.5226353975 
H 9.9464998564 5.1800283995 10.9100223146 
H 5.7533880420 8.7742468966 9.3183195897 
H 5.7572001698 8.7770972897 10.9005224521 
O 6.5507991785 8.2168973205 12.2973046211 
H 7.4933333751 8.5199557223 12.2898874913 
H 6.5796359995 7.2283439860 12.2929091994 
O 9.0855121260 9.1087458052 12.2903904808 
H 9.5667174483 8.7738666843 13.0861239262 
H 9.5751713655 8.7638720182 11.5019188908 
O 10.3623637912 8.2076723673 10.1081499605 
H 10.3962626390 7.2177876547 10.1116684449 
O 14.1893071504 5.5173590643 12.3418690745 
H 13.7449559039 5.1789599070 11.5243825343 
H 15.1162454473 5.1733777377 12.3142028462 
O 10.3921101317 5.5220231416 10.0958982161 
H 11.3188367350 5.1773785947 10.1207795234 
O 12.9182874965 9.0743916305 10.1332521701 
H 13.3861666018 8.7648001106 9.3184845351 
H 11.3022411666 8.5162356793 10.1091528919 
O 14.2092271401 8.2036808260 12.3470793976 
H 14.2008502736 7.2136427069 12.3207722454 
H 13.7434343662 8.5074130455 11.5298684116 
O 1.4790638433 11.8138373640 12.3276381847 
H 1.4906591697 10.8244661492 12.3131152006 
H 1.9503351864 12.1096117685 11.5107914686 
O 2.7472600715 12.6594685448 10.0921993703 
H 3.6889568187 12.3557952608 10.0923134394 
H 2.7774091997 13.6482736285 10.0913802518 
O 5.3048687004 11.8055624248 10.0818915572 
H 5.3146958673 10.8154161670 10.1094173210 
H 5.7676246588 12.1116025987 10.9005730464 
O 6.5809491066 12.6749312420 12.3015640614 
H 6.5624365625 13.6629282368 12.3277705960 
H 6.1143888324 12.3659236094 13.1178244078 
O 9.1358245787 11.8100714545 12.2985473757 
H 8.1948747065 12.1148234815 12.3083048738 
H 9.1079154684 10.8214473852 12.2937800256 
H 9.9337201099 12.3800789769 10.9031594939 
H 14.2073886898 14.4041257722 12.3190433767 
O 12.9448468875 11.7775451934 10.0806453182 
H 12.0173111086 12.1199823853 10.1090451526 
H 13.3887288885 12.1162711082 10.8958043948 
O 14.1883857118 12.7088860466 12.2978361115 
H 15.1165395957 12.3682512921 12.3217647209 
H 13.7421981374 12.3626239128 13.1101467757 
H 12.9344383179 10.0626792803 10.1025147493 
O 10.4108208895 12.6809968922 10.0901715817 
H 10.3948779471 13.6694302218 10.1100282031 
H 4.4038141912 4.9369307998 14.5304482885 
O 2.7618839152 0.9943346125 14.4966648333 
H 3.6870711587 1.3426431565 14.5226909220 
H 2.3134451689 1.3339467224 15.3102868710 
O 1.5060618955 4.5674182604 16.7047617943 
H 0.5786660739 4.9094027984 16.7219374597 
H 1.9462224307 4.9171588303 17.5189759216 
O 1.5206832872 1.8803745548 16.7185452749 
H 1.4927740446 2.8702077492 16.7230497951 
H 0.5796649094 1.5761460124 16.7139772551 
O 5.2964792825 1.9030419948 14.5437971582 
O 5.3353260360 4.6067422699 14.5071899134 
H 5.7771910317 4.9457365312 15.3249425218 
H 5.7663193038 1.6051088397 13.7246193089 
H 5.3149479700 2.8917559735 14.5295302539 
O 6.6007118691 0.9976153296 16.7245102810 
H 6.1161882488 1.3424775081 17.5149411137 
H 6.1163683189 1.3391071840 15.9325135916 
H 9.9370492739 1.3204635786 15.3095431105 
O 9.1463732569 4.5740708463 16.7294929022 
H 9.5844431564 4.9232943283 15.9140469507 
H 8.2202362176 4.9218498552 16.7162195861 
O 9.1463928988 1.8800607359 16.7202737961 
H 9.1257718275 2.8694406860 16.7163484142 
H 8.2032537209 1.5820842646 16.7221187449 
O 12.9385121220 4.5929057428 14.5510861799 
H 13.3807642448 4.9322289232 13.7342278332 
H 12.0100745856 4.9337260049 14.5231532366 
O 10.4099776462 1.0209945222 14.4942399514 
O 12.9647406336 1.8958509116 14.5133274194 
H 12.9310740098 2.8844073091 14.5222102983 
H 12.0253597602 1.5865840014 14.5136458646 
O 14.2167568042 1.0158952758 16.7315572318 
H 13.7471240396 1.3289389758 15.9188597691 
O 2.7874038594 5.5030340420 14.5195917723 
H 2.3027470655 5.1616382482 13.7288240791 
H 2.3071481682 5.1593421997 15.3125790450 
O 2.7370700400 8.2073304866 14.5195084121 
H 3.6788538853 8.5095683846 14.5162211863 
H 2.7633491319 7.2189852277 14.5170036930 
O 1.4698262167 9.0770128947 16.7376279345 
H 1.9448261740 8.7721096695 15.9254631850 
O 5.2949921060 9.0721809971 14.5339518142 
O 6.6087564744 5.4914240118 16.7038766883 
H 6.5909221304 6.4807241649 16.7273101736 
H 6.1309811682 5.1866488361 17.5153123599 
H 9.9305907122 5.1888668900 13.7155420527 
H 5.7666283880 8.7721461409 13.7185275511 
O 6.6021849668 8.1839102136 16.7243590524 
H 6.1162287915 8.5250101421 17.5155992797 
H 6.1158642325 8.5195280983 15.9312944587 
H 9.9272978062 8.5296365110 15.3099853383 
O 9.1438057175 9.0765279231 16.7255369919 
H 8.2015218000 8.7741051571 16.7252086227 
O 10.3672790580 8.1933540725 14.4907687149 
O 10.3991015172 5.4923799427 14.5331368028 
H 10.3822855582 6.4815237241 14.5107027916 
O 14.2155462791 5.4747603074 16.7386397866 
H 14.2042959072 6.4638409119 16.7235354596 
H 13.7366202308 5.1791546274 15.9237490723 
H 11.2975280704 8.5274151200 14.5153820228 
O 12.9058042980 9.1034673047 14.5181894874 
H 13.3893176640 8.7681488790 15.3134193599 
H 13.3942457912 8.7587057625 13.7293198369 
O 14.1919849762 8.1787396472 16.7007839146 
H 15.1203233251 8.5210070913 16.7207755059 
H 13.7513733681 8.5173041314 17.5196162735 
H 4.3974360276 12.1144697109 14.5200268133 
O 2.7770996630 12.6765221239 14.5316651579 
H 2.7709721111 13.6661109757 14.5123785243 
H 2.3074213145 12.3788554044 13.7140198780 
O 1.4759840781 11.7686820493 16.7106076839 
H 1.9597121195 12.1101658909 15.9185421111 
H 1.9646837511 12.1022546412 17.5028755664 
H 1.4879147220 10.0663064291 16.7141126093 
O 5.3244521064 11.7715616333 14.5021342125 
H 5.7654259408 12.1194970877 15.3168948161 
H 5.3110221961 10.0609407128 14.5171947822 
O 6.5880983192 12.6810936693 16.6965563933 
H 6.5746916795 13.6705013988 16.7212668427 
H 6.1214356025 12.3765883835 17.5138649267 
H 9.9336706334 12.3609259174 13.7138278457 
O 9.1285318019 11.7762838997 16.7354033998 
H 8.2013089685 12.1206900998 16.7112352602 
H 9.5725178129 12.1150644389 15.9193833062 
H 9.1154121057 10.0655074016 16.7245598462 
H 10.3974296114 14.4082375907 14.5134757951 
H 14.1965319459 14.4039747020 16.7024322859 
O 12.9151793374 11.7969257823 14.4875604936 
H 13.3908884672 12.0972243267 15.3020832082 
H 12.9321657839 10.8072614983 14.5086653020 
O 10.3805188220 12.7005412452 14.5272647888 
H 11.3060712122 12.3521697427 14.5043212034 
O 14.1912929651 12.6882091317 16.6843562510 
H 15.1202488203 12.3506227707 16.7073207646 
H 13.7519216055 12.3451125662 17.5014019468 

