&CONTROL
   calculation      = 'vc-relax'
   tstress          = .true.
   tprnfor          = .true.
   outdir           = './'
   pseudo_dir       = '/global/homes/p/ppiaggi/QuantumEspresso/pseudos'
/
&SYSTEM
   ecutwfc          = 150
   input_dft        = 'SCAN'
   ntyp             = 2
   nat              = 384
   ibrav            = 0
/
&ELECTRONS
   mixing_beta      = 0.5
   startingpot      = 'atomic'
   startingwfc      = 'atomic+random'
/
&IONS
/
&CELL
/

ATOMIC_SPECIES
O 15.999400004115753 O_ONCV_PBE_sr.upf
H 1.0079400002592869 H_ONCV_PBE_sr.upf

K_POINTS gamma

CELL_PARAMETERS angstrom
15.25586539544192 0.00000000000000 0.00000000000000
0.00000000000000 14.37707754447540 0.00000000000000
0.00000000000000 0.00000000000000 17.61276636519174

ATOMIC_POSITIONS angstrom
O 1.4797910088 1.8853200897 3.5365285231 
H 1.4889544168 2.8745342168 3.4998117071 
H 1.9467511951 1.5744571376 2.7222342717 
O 5.2642080135 4.5787626167 1.3105340407 
H 4.3813641039 1.5740785322 1.3163047631 
O 1.4898403111 4.5728997019 3.5098028185 
H 1.9400830731 4.9211061502 2.7002298821 
H 0.5662902455 4.9229355828 3.4848422410 
O 2.7686270015 1.0161725555 1.3257513685 
H 2.2953797456 1.3270097209 0.5158975664 
H 5.7522520183 4.9243559651 2.0987653648 
H 5.7476327094 4.9194690903 0.5172272450 
O 5.3229915115 1.8776393511 1.3180117309 
H 5.2948331798 2.8667432921 1.3183682207 
O 6.6021628059 0.9792288115 3.5068722086 
H 6.1135378974 1.3198101034 4.2969594354 
H 6.1130996211 1.3162801640 2.7151776540 
O 9.1286133127 1.9177708345 3.5237589637 
H 8.2012495764 1.5746141534 3.5002290754 
H 9.5729768912 1.5800242977 2.7077080835 
O 9.1154518428 4.6251271857 3.4822984033 
H 9.5905902550 4.9285031678 4.2959472731 
H 9.1274650365 3.6365373367 3.5069996798 
O 10.3666772584 1.0314824929 1.2942311698 
O 12.9059689856 4.6182589731 1.2709184763 
H 12.9212167109 3.6288209939 1.3039965323 
H 13.3739674834 4.9289336483 2.0855404997 
O 12.9006374065 1.9270515032 1.3122640185 
H 13.3892483362 1.5846211448 0.5222275286 
H 13.3852550695 1.5846418086 2.1040107375 
H 11.3082287914 1.3372663972 1.2987214303 
O 14.1775177501 1.0195761229 3.5060463804 
H 15.1185568347 1.3243661337 3.5051292990 
O 2.7316018904 5.4845870497 1.3032644521 
H 2.7631618481 6.4736779588 1.3068251552 
H 3.6732371378 5.1787065732 1.3029728228 
O 1.4672393245 9.1003877016 3.5099257889 
H 1.9590744728 8.7627866837 2.7209435348 
H 1.9473370433 8.7592535466 4.3038678879 
O 2.7646207176 8.1839022768 1.3353252697 
H 2.3272341052 8.5204253137 0.5150867291 
H 3.6948069783 8.5203423595 1.3123737197 
O 5.3042676068 9.0790966257 1.3325745688 
O 6.5475921056 5.4865284037 3.4975161122 
H 6.5753847001 6.4768600165 3.4944644733 
H 7.4892923241 5.1851188036 3.4986288288 
H 9.9356636518 5.1808305394 2.0951404396 
H 5.7669754050 8.7783043508 0.5103767357 
O 6.5697415142 8.1733415960 3.5146476598 
H 7.4984702172 8.5105308726 3.4903231812 
H 6.1281483823 8.5193227152 2.6983980279 
O 9.1264869798 9.0718783743 3.4664836271 
H 9.5948906628 8.7673194255 4.2827869131 
H 9.9442687693 8.5148586310 2.0822382921 
O 14.1986017218 5.4951737869 3.4704416612 
H 14.1887291631 6.4842994534 3.4938994015 
H 13.7373472895 5.1938676822 4.2911972866 
O 10.3741654697 5.5182763388 1.2750898257 
H 11.3019190821 5.1737164762 1.2945944095 
O 12.9478828553 9.1047922462 1.2601590158 
H 12.0179093402 8.7672815805 1.2828429458 
H 13.3839812731 8.7702077061 2.0829863324 
O 10.4070138069 8.2074901385 1.2626107663 
H 10.3954461778 7.2178726437 1.2931687035 
O 14.1832230574 8.1923511041 3.4732137793 
H 15.1145034224 8.5231614141 3.5041213766 
H 13.7415889211 8.5270380326 4.2929935571 
H 2.7557630563 14.4032939462 1.2962857680 
H 4.4023467484 12.1183695669 1.3114874344 
O 1.5262728155 11.8076786563 3.4988723006 
H 1.5015426280 10.8189099702 3.5027823065 
H 0.5823270085 12.1068969581 3.4944340144 
O 2.7965924788 12.7078741533 1.3058573838 
H 2.3087526828 12.3644992091 2.0955072806 
H 2.3166873044 12.3596204292 0.5128897835 
O 5.3311059870 11.7783083644 1.3366573358 
H 5.7710379482 12.1154780143 0.5162552367 
O 6.6075117617 12.6621301915 3.5276995836 
H 6.1324596980 12.3614658858 2.7127294834 
H 6.5903896639 13.6515416280 3.5088420888 
H 5.3180770186 10.0685182830 1.3122334819 
H 9.1375876035 10.0607487854 3.4956566839 
O 9.1514688704 11.7671191883 3.4855800905 
H 9.5918141903 12.1135319240 4.3007351427 
H 8.2229170911 12.1078387746 3.5063574949 
H 9.9581354781 12.3584251235 2.0930630192 
H 9.9438526610 12.3504483913 0.5115125776 
H 10.3972449860 14.4205787902 1.2899523137 
H 14.2094065230 14.4077352611 3.4939671190 
O 12.9729148669 11.7998890655 1.2878279808 
H 12.9419949202 10.8102299372 1.2860292926 
H 12.0306740255 12.1048168218 1.2923943996 
O 14.2468591211 12.6952027380 3.4879029215 
H 13.7634425303 12.3531842431 2.6955005325 
H 13.7599695508 12.3525188581 4.2787926312 
O 10.4365538045 12.6967924629 1.2966127370 
O 2.7616441347 1.0223288204 5.7442203882 
H 2.2946235804 1.3285317188 4.9273056352 
H 4.3819277771 1.5813246631 5.7029317861 
O 1.4884017399 4.6007402917 7.9474622112 
H 1.4977545684 3.6110427874 7.9263027442 
H 1.9514319485 4.8974259600 7.1248315082 
O 1.5020790472 1.9052570564 7.9415912808 
H 1.9414575112 1.5668790280 7.1210730945 
H 0.5716969705 1.5699418750 7.9191209649 
O 5.2803656233 4.5812736260 5.6888434982 
H 5.7639265805 4.9244191840 6.4798842563 
H 5.7616933545 4.9290917003 4.8973594049 
O 5.3246323118 1.8809175896 5.6983686606 
H 5.2999112796 2.8699232662 5.6900747355 
O 6.5797761224 1.0079364488 7.9226770849 
H 6.1077453081 1.3106144938 7.1083650503 
H 9.9260670387 1.3377610408 6.5018334181 
H 9.9276286176 1.3332793703 4.9192144702 
O 9.1490798247 4.6144278938 7.8935741207 
H 9.1180669611 3.6248268798 7.8975205053 
H 8.2088289185 4.9202929619 7.8935017683 
O 9.1180362346 1.9242492578 7.8845707722 
H 9.5532432990 1.5745301363 8.7014416903 
H 8.1898064155 1.5829533721 7.8998124838 
O 12.9266816798 4.6249229465 5.6946427112 
H 12.9421551795 3.6357509808 5.7157898964 
H 13.3957626955 4.9269110290 6.5114718135 
O 10.4168399475 1.0008576359 5.7115442658 
O 12.9494364994 1.9254851204 5.7307749858 
H 13.3892101389 1.5801196266 4.9157086803 
H 12.0197602331 1.5893804174 5.7107927010 
O 14.2246195113 0.9879206855 7.9202971356 
H 13.7278296315 1.3259204217 8.7064193726 
H 13.7463990940 1.3258769892 7.1233621552 
O 2.7370875735 5.4801871934 5.7318459306 
H 2.2931442849 5.1474703146 4.9135680581 
H 3.6689086353 5.1499647795 5.6972861326 
O 2.7711575350 8.1924359168 5.6933947920 
H 2.3054297274 8.4999985710 6.5102624049 
H 2.7545782320 7.2046442146 5.7163051931 
H 4.3924197984 8.7544435296 5.6989166040 
O 1.4892349580 9.0787819205 7.8922459026 
H 1.9556859762 8.7712648049 8.7084671795 
O 6.5923291658 5.4860710027 7.8745487904 
H 6.1254132973 5.1789860622 8.6902869323 
H 6.5814961157 6.4744748393 7.9047786656 
H 9.9419505214 5.1749247652 6.4889972992 
O 5.3198871070 9.0954900657 5.7188888986 
H 5.7614199946 8.7553670015 4.9016106447 
O 6.6125299739 8.1874316666 7.9129074747 
H 6.1246141417 8.5218384610 7.1208882974 
H 6.1241215024 8.5263660057 8.7040077836 
H 9.9491549336 8.5153731733 6.4927932696 
O 9.1515100138 9.1041146304 7.8825245931 
H 8.2217092953 8.7684391241 7.9124950195 
H 9.5929762847 8.7677431827 8.7014590419 
O 10.3912594613 5.5198079773 5.6775128870 
H 11.3187865769 5.1756305882 5.7091159979 
O 14.1844950175 5.4769529930 7.9271464793 
H 15.1239862350 5.1676637499 7.9305402892 
H 14.2181459384 6.4664514180 7.9241647187 
O 10.4176891926 8.2136595456 5.6755939572 
H 10.4067620661 7.2242633779 5.7007692942 
O 12.9495598605 9.1106928113 5.6841830803 
H 13.3940102212 8.7672984763 6.4973410558 
H 12.0198593020 8.7706506451 5.7083320955 
O 14.2072033728 8.1676539202 7.8877043727 
H 15.1327699428 8.5150499754 7.9127904053 
H 13.7605664065 8.5101838662 8.7009075351 
H 2.7600277101 14.4099020604 5.7107704211 
O 2.7708312336 12.7106987411 5.7256070806 
H 2.3221419396 12.3699268595 4.9134152630 
H 3.6960588641 12.3630624688 5.6990319092 
O 1.5241813487 11.7879788148 7.9462421743 
H 1.9684483381 12.1244718176 7.1299971332 
H 0.5956693225 12.1285613233 7.9148248994 
H 1.5044901718 10.0670119616 7.9223458851 
H 6.5714404412 14.3954241758 7.8998864247 
O 5.3058024945 11.7911492580 5.7285484322 
H 5.7787773270 12.0940055003 4.9136799249 
H 5.3143242663 10.8017960404 5.7008992098 
O 6.5673454364 12.6928492970 7.9217101729 
H 6.1235293364 12.3473666003 7.1073105068 
H 7.4965537805 12.3559768322 7.8950513999 
H 9.9480232981 12.3689037607 6.4938499426 
O 9.1196824083 11.8017329162 7.8738597586 
H 9.1351310417 10.8126784029 7.8946432177 
H 9.5824255077 12.1017975974 8.6955718965 
O 12.9774861421 11.8070470931 5.6845065668 
H 12.0380944774 12.1165128030 5.6894805234 
H 12.9424099986 10.8179932828 5.6918707515 
O 10.4189529328 12.6786691511 5.6802022503 
H 10.3987928430 13.6673938845 5.7093981005 
O 14.2390432030 12.6731397225 7.9258421010 
H 13.7727464851 12.3725640449 7.1078735222 
H 14.2156845228 13.6629954185 7.9099361842 
O 1.4917129578 1.9117237319 12.2882552045 
H 1.9299682036 1.5726775994 13.1081110840 
H 0.5626152582 1.5762898619 12.3083098218 
H 4.3999841506 1.5746660671 10.1052217708 
O 1.4820297697 4.6177745365 12.3294718180 
H 1.9547434437 4.9192938184 11.5136438252 
H 1.4942163879 3.6290290760 12.3065139717 
O 2.7971817205 1.0005193486 10.1148035161 
H 2.3073781882 1.3276296358 9.3192383172 
H 2.3015894577 1.3328097119 10.9034568994 
O 5.3033486350 4.6099214111 10.0828968467 
H 5.7674771538 4.9084098222 10.9042733947 
H 5.3176086154 3.6210346467 10.1023961390 
O 5.3321740034 1.9044599214 10.1289911830 
H 5.7697266245 1.5621888477 9.3101638444 
O 6.5597226135 0.9774742213 12.3423684958 
H 7.4879107803 1.3200455659 12.3185648035 
H 6.1224203083 1.3120542653 11.5204432337 
O 9.0934508903 1.8798017458 12.2953655851 
H 9.1071061372 2.8689498529 12.3202297805 
H 9.5651017847 1.5756554712 13.1107524413 
O 9.0831727647 4.5765681875 12.3290366083 
H 9.5701628879 4.9157666964 11.5386410770 
H 9.5706501248 4.9112710881 13.1229687772 
H 9.9070426923 1.3113885558 10.8968651502 
O 10.3681826544 1.0071533378 10.0761587503 
O 12.8977103382 4.5767059663 10.1174925758 
H 13.3871152693 4.9174832881 9.3282901144 
H 13.3840068643 4.9136024621 10.9101251873 
O 12.9347125246 1.8794340633 10.1009940942 
H 12.9078887425 2.8689778383 10.1077752893 
H 11.9934822108 1.5769463768 10.0979140228 
O 14.2020262468 0.9897252207 12.3023189051 
H 13.7166422442 1.3303412360 11.5106230562 
H 13.7173742216 1.3264580176 13.0943668274 
O 2.7566733479 5.5096855627 10.1325196739 
H 2.3133200392 5.1597753667 9.3194402811 
H 3.6839873788 5.1664907569 10.1111298688 
O 1.5105916262 9.0811244211 12.3112761098 
H 0.5699032270 8.7739631411 12.3086395913 
H 4.3937721733 8.7743009253 10.1094591621 
O 2.7816528933 8.2066118631 10.0977737800 
H 2.3072111512 8.5128034423 10.9096532080 
H 2.7661972022 7.2175762458 10.1203212160 
O 6.5467512557 5.4997880248 12.2953167545 
H 6.1006469666 5.1585355154 13.1092212155 
H 7.4758906339 5.1618172892 12.3268899995 
H 9.9300310340 5.1695917475 9.3188804805 
O 5.3344626442 9.0809800102 10.1092916864 
O 6.5884094866 8.2079247510 12.3307564315 
H 6.5603805352 7.2197813821 12.3105636083 
H 6.1160922911 8.5159595459 11.5177543028 
O 9.1475877725 9.0715638010 12.3090318027 
H 8.2066687394 8.7676816074 12.3077820285 
H 9.9336273803 8.5173482157 10.9070174858 
O 14.1753344286 5.4720439011 12.3155415433 
H 15.1179582790 5.1718404082 12.3103850877 
H 14.2014134585 6.4612932466 12.3074576008 
O 10.3676796424 5.5081342337 10.1378681418 
H 11.2966704424 5.1695437243 10.1155905755 
O 12.9618379888 9.0720680610 10.1062823145 
H 12.0193746282 8.7713876719 10.1110007189 
O 10.4086819042 8.2103968192 10.0943509885 
H 10.3848944793 7.2217398246 10.1174766802 
O 14.2339891619 8.1714280991 12.2995728631 
H 13.7506030080 8.5147544041 13.0919889790 
H 13.7485418929 8.5151881754 11.5087051452 
H 1.4832140863 10.0693354868 12.3126862955 
H 4.3979526712 12.1211839006 10.1195278615 
O 1.4701722064 11.7899498454 12.3157485973 
H 1.9610806955 12.1294669832 11.5270922347 
H 1.9505361898 12.1305991440 13.1097381273 
O 2.7972977820 12.6811961154 10.1407423071 
H 2.7847021378 13.6708642329 10.1187512534 
H 2.3234028551 12.3820644140 9.3245284143 
O 5.3253157801 11.7752514542 10.1432609875 
H 5.7654082130 12.1114865991 9.3241557607 
O 6.5902350980 12.6593038482 12.3464665534 
H 6.1216450078 12.3602212944 11.5277207255 
H 6.5792415181 13.6486831625 12.3251399348 
H 5.3047307434 10.0703481121 10.1141850029 
H 9.1218684915 10.0614622789 12.3149841054 
O 9.1350256338 11.7568869920 12.3020437705 
H 9.5781531193 12.1040252965 13.1159144519 
H 8.2067456329 12.0973673278 12.3274135360 
H 9.9300738570 12.3440223048 10.9042987373 
H 10.3609867836 14.3955876942 10.1046121449 
O 12.9139676971 11.7672765022 10.1128045075 
H 13.3978648041 12.1091093314 10.9057808332 
H 13.4005424079 12.1078468834 9.3233291354 
O 14.1795473665 12.6677355597 12.3035735170 
H 14.1949823126 13.6571718592 12.2997291316 
H 15.1249142276 12.3754810924 12.3063899426 
H 12.9392540031 10.0614799792 10.1105274032 
O 10.3691451078 12.6828224815 10.0854149760 
H 11.3002890464 12.3517089583 10.1128860920 
O 2.7190162542 1.0298885223 14.5145833247 
H 3.6619218508 1.3305189309 14.5166385682 
O 5.2634516390 1.9040206122 14.5136591458 
O 1.4563155401 4.5958643728 16.7183217490 
H 1.9394492542 4.9360893914 15.9254429870 
H 1.9450015871 4.9354117469 17.5089188292 
O 1.4605506008 1.9028485198 16.7363423046 
H 1.4800384566 2.8920540037 16.7147201478 
H 1.9319744410 1.5971889207 15.9217800978 
O 5.2726306900 4.6011846389 14.4991745216 
H 5.7474142591 4.9029002072 15.3126769704 
H 5.2870566687 3.6118930448 14.5180770759 
H 5.7521692583 1.5657121893 13.7227405104 
H 5.7526676731 1.5686346079 15.3050880665 
O 6.5663666498 0.9841410019 16.6940497638 
H 7.4906000299 1.3378464682 16.7167186168 
H 6.1199815175 1.3219596707 17.5079107952 
O 10.3524784607 0.9884937435 14.4960304458 
H 9.9063150875 1.3348310275 15.3081523857 
O 9.0750482373 4.5981266404 16.7099207220 
H 9.5661916491 4.9336744588 15.9181106462 
H 9.5628356549 4.9353967498 17.5018432577 
O 9.0847812223 1.9051435531 16.6934729119 
H 9.1009776907 2.8950462414 16.7131331647 
H 9.5666341557 1.6038394413 17.5030964164 
O 12.8922682932 4.5768056037 14.5029591920 
H 13.3743899918 4.9184533607 15.2965821159 
H 13.3832677471 4.9160921863 13.7134669895 
H 11.2804668253 1.3318370582 14.5248011004 
O 12.8890111291 1.8861671809 14.5009766878 
H 12.9076908194 2.8762912227 14.5161255663 
H 13.3651196223 1.5879712401 15.3141591342 
O 14.1719390353 1.0291452063 16.7319993917 
H 15.1111395302 1.3422170317 16.7262636053 
O 2.7398100367 5.5234397349 14.5280442871 
H 2.2986032600 5.1791189806 13.7122359489 
H 3.6648939545 5.1737328745 14.5107454372 
O 2.7850608959 8.2110287191 14.5317500563 
H 2.3103655648 8.5173791389 13.7197310682 
H 2.7650709495 7.2208203781 14.5048065060 
H 4.3927110420 8.7693106788 14.5044339663 
O 1.5186561879 9.1027190534 16.7310776435 
H 1.9618033179 8.7622062629 15.9144797575 
H 0.5892711054 8.7663778704 16.7020748428 
O 6.5323135520 5.4777146945 16.7240779176 
H 7.4766760885 5.1796859464 16.7196823907 
H 6.5570651784 6.4666546647 16.7245351361 
O 10.3566756826 5.4681174080 14.5197760195 
O 5.3204921363 9.1119277582 14.5343467009 
H 5.7659775885 8.7731239069 13.7187595795 
O 6.5508106102 8.1820941136 16.7395020351 
H 6.1129756376 8.5221019585 15.9197811048 
H 7.4836975695 8.5087916277 16.7113031445 
H 9.9433003105 8.5046502948 13.6998333543 
O 9.0952167134 9.0884103312 16.7027386797 
H 9.5786790607 8.7484963649 15.9111770953 
H 9.5827003396 8.7490106818 17.4945893394 
O 10.3869457108 8.1573609338 14.5135280631 
H 10.3882156092 6.4579412912 14.5073336594 
H 11.2989308272 5.1629726941 14.5124120178 
O 14.1706963485 5.5142864695 16.6827255547 
H 15.1006159297 5.1796863003 16.7130904696 
H 13.7284591411 5.1780450438 17.5013362528 
H 11.3135846930 8.5010998645 14.4932795427 
O 12.9302774891 9.0716723117 14.4778941910 
H 13.3997745473 8.7713392049 15.2961205032 
O 14.2194004293 8.2136974443 16.6761885616 
H 14.1987508426 7.2248938231 16.6984551705 
H 13.7495817781 8.5171057775 17.4924388103 
H 2.7478204666 14.4175345925 14.5265468420 
O 2.7512657287 12.7161994812 14.5109464130 
H 3.6791153472 12.3757740173 14.5295871042 
H 2.3130510600 12.3661174792 15.3258950964 
O 1.5336641528 11.7973386655 16.7291708185 
H 1.5102773286 10.8076659696 16.7252573075 
H 0.5904681492 12.0974277559 16.7300326367 
O 5.2978365348 11.8031373293 14.5494789098 
H 5.3083235432 10.8138976351 14.5213508132 
H 5.7658134984 12.1075322507 13.7322591059 
O 6.5877999127 12.6642612020 16.7464297146 
H 6.1176922365 12.3578417392 15.9306624635 
H 6.5778146981 13.6532750726 16.7172093034 
H 9.9321899648 12.3640752870 15.3092806445 
O 9.1439505344 11.7926305749 16.7302457218 
H 9.1154889709 10.8040760489 16.7189779202 
H 8.2028605348 12.0973051976 16.7291846195 
H 14.2101586940 14.4180335012 16.7319855065 
O 12.9487673602 11.7678609118 14.5284297632 
H 12.0229495101 12.1125712537 14.5108797898 
H 13.3905894765 12.1109904511 13.7133529687 
O 10.3992041685 12.6713947612 14.4940465673 
H 10.3743197597 13.6607191566 14.5174289281 
H 12.9377719725 10.0608897804 14.5004445197 
O 14.2535039502 12.6986875794 16.7207289558 
H 13.7628151740 12.3552447279 17.5092986059 
H 13.7686790769 12.3613006761 15.9288265468 

