&CONTROL
   calculation      = 'vc-relax'
   tstress          = .true.
   tprnfor          = .true.
   outdir           = './'
   pseudo_dir       = '/global/homes/p/ppiaggi/QuantumEspresso/pseudos'
/
&SYSTEM
   ecutwfc          = 150
   input_dft        = 'SCAN'
   ntyp             = 2
   nat              = 384
   ibrav            = 0
/
&ELECTRONS
   mixing_beta      = 0.5
   startingpot      = 'atomic'
   startingwfc      = 'atomic+random'
/
&IONS
/
&CELL
/

ATOMIC_SPECIES
O 15.999400004115753 O_ONCV_PBE_sr.upf
H 1.0079400002592869 H_ONCV_PBE_sr.upf

K_POINTS gamma

CELL_PARAMETERS angstrom
15.25619730562623 0.00000000000000 0.00000000000000
0.00000000000000 14.37837102612872 0.00000000000000
0.00000000000000 0.00000000000000 17.61682417737575

ATOMIC_POSITIONS angstrom
O 1.5027245349 1.8964970466 3.4957578599 
H 1.4746924711 2.8846225863 3.5046355706 
H 0.5615738113 1.5918705170 3.5003490268 
O 1.4470855461 4.6087777090 3.5040372595 
H 1.9369571622 4.9348676104 2.7090657010 
H 1.9450895061 4.9391218056 4.2922224001 
O 2.7530519611 0.9907856920 1.2757699958 
H 3.6792450695 1.3382936264 1.3064868345 
H 2.3008489150 1.3334448998 2.0848759113 
O 5.2916941569 4.5755279689 1.3105398655 
O 5.2826024643 1.8909379232 1.2921548724 
H 5.7781803120 4.9230062039 2.0986920191 
H 5.7677379664 4.9216230605 0.5150628175 
H 5.3101078458 2.8810924113 1.3152640233 
H 5.7620078897 1.5819044449 2.0993021286 
O 6.5698404892 1.0054995436 3.5062597742 
H 7.5104334688 1.3117428924 3.5058462313 
O 9.1230606876 1.8815608572 3.5301469129 
H 9.5893778452 1.5771711347 2.7123203152 
H 9.1325557104 2.8708721109 3.5003004666 
O 9.1396848787 4.5784143555 3.4717312123 
H 8.2131443290 4.9259412959 3.4946986745 
H 9.5819906426 4.9197596481 4.2881063061 
H 9.9262234301 1.3201288495 0.5070814948 
O 12.9206627974 4.6177378137 1.2684744921 
H 12.9350966484 3.6281750542 1.3007805554 
H 13.3844619874 4.9275760971 2.0862516700 
O 12.9436297556 1.9281842338 1.2876085463 
H 13.3846121745 1.5827582846 2.1033803183 
H 12.0168551252 1.5835385751 1.3059785624 
O 10.4034242097 1.0160068413 1.3179618092 
O 14.2076184725 1.0211408245 3.4791427818 
H 13.7436858608 1.3213182447 4.2999098215 
O 2.7499595188 5.5002802015 1.3188313286 
H 2.3154432708 5.1643858719 0.4954237916 
H 3.6795592708 5.1634786488 1.3024151268 
O 1.4503805076 9.1052272953 3.5009609764 
H 1.9347851968 8.7572548804 2.7112686634 
H 1.9343660369 8.7619678110 4.2927780809 
O 2.7228698786 8.1935364381 1.3168149651 
H 3.6640562006 8.4994204313 1.3141017615 
H 2.7549299421 7.2040563899 1.3106721080 
O 5.2790129827 9.0661967314 1.3278173355 
O 6.6105699822 5.4874201850 3.4780812102 
H 6.1419287105 5.1855400516 4.2943327348 
H 6.5937862749 6.4773641889 3.5000856821 
H 9.9421206932 5.1679148901 2.0827255988 
H 5.7497148195 8.7640354741 0.5110635375 
O 6.6002611570 8.1762052964 3.4958929735 
H 6.1158089157 8.5199894444 4.2870026285 
H 6.1111330541 8.5137610898 2.7046587040 
O 9.1366326073 9.1021704253 3.5069332974 
H 9.5726835445 8.7595251160 2.6876228269 
H 8.2065086847 8.7666495415 3.4867657976 
O 10.3551052866 8.2001379438 1.2789076726 
H 10.3854225733 7.2108980531 1.2805199656 
O 14.1621009642 5.4923361191 3.4965682743 
H 15.1071927053 5.1989036780 3.4991090397 
H 14.1801888453 6.4820096212 3.4967772852 
O 10.3817200086 5.5045091280 1.2628317372 
H 11.3126734257 5.1696624612 1.2889132834 
O 12.8843416077 9.1077571273 1.2868453318 
H 13.3740804959 8.7666634436 0.4976852053 
H 13.3683922668 8.7712525326 2.0809539066 
H 11.2971663186 8.5056775697 1.2809421087 
O 14.1700251484 8.1873557783 3.4756451936 
H 13.7348501969 8.5241182098 4.2981838260 
H 15.1013770512 8.5207779059 3.4986207533 
H 4.3900616270 12.1047629380 1.3016679317 
O 1.4752430397 11.7975248101 3.5246280872 
H 1.4835278539 10.8078351847 3.4965979735 
H 1.9454945651 12.1012853119 2.7106217841 
O 2.7881560655 12.6686755990 1.3130351435 
H 2.3181631890 12.3683510718 0.4962923547 
H 2.7728234560 13.6577608972 1.2923411709 
H 6.5975707142 14.3962623707 3.5023258679 
O 5.3167838074 11.7579915049 1.3309756101 
H 5.7618918715 12.0943643850 0.5136099770 
O 6.6153923293 12.6703800787 3.5072568625 
H 6.1301448568 12.3388364083 4.3017974260 
H 6.1237387534 12.3324780920 2.7175832176 
H 5.2929821625 10.0557530705 1.3053118002 
O 9.1605695506 11.7964880159 3.5012112767 
H 9.1357401781 10.8067675750 3.4926013632 
H 8.2158839070 12.0924548266 3.5018075458 
H 9.9296363187 12.3614990207 0.5125677280 
H 9.9354182862 12.3618405342 2.0954510950 
H 10.3915176787 14.4045549352 1.2945594097 
H 14.2023121109 14.4102511027 3.5043224243 
O 12.9508154200 11.8139896119 1.2986545115 
H 12.9213326520 10.8254964201 1.2928637645 
H 12.0091842722 12.1196256177 1.2995146417 
O 14.2012319474 12.7022085045 3.5246166823 
H 13.7525833941 12.3628251171 2.7116265191 
H 15.1274593462 12.3537482689 3.4987969733 
O 10.4165161943 12.7068155297 1.3022846489 
O 2.7916708736 0.9898107606 5.6921899590 
H 2.3054087818 1.3289394099 4.9010211814 
H 2.3036034977 1.3329280494 6.4826286026 
H 4.3971894216 1.5713409497 5.6947771004 
O 1.5120273141 4.5727625819 7.8838039357 
H 1.9564876018 4.9102597340 8.7010399448 
H 0.5849037421 4.9145327455 7.9091170063 
O 1.5275638063 1.8841236298 7.8837024693 
H 0.5866613439 1.5784413757 7.8972208214 
H 1.4974867269 2.8741177038 7.8914243989 
O 5.3050493719 4.6179812973 5.6850098662 
H 5.7716252190 4.9203098892 6.5037488912 
H 5.3169540191 3.6294653796 5.7088617692 
O 5.3261877443 1.9091998330 5.7240088986 
H 5.7737220514 1.5674837641 4.9115724574 
O 6.5665060479 0.9943021102 7.9357092765 
H 6.1236673130 1.3242785732 7.1151154818 
H 7.4961029813 1.3303947435 7.9052119569 
H 9.9439518224 1.3195156570 4.9099170260 
O 9.1005804610 4.6137363950 7.8841596074 
H 9.1176654625 3.6244909128 7.9119953438 
H 9.5744704657 4.9225288044 8.6961585221 
O 9.1003952736 1.9193454401 7.9088934516 
H 9.5855804733 1.5810790239 8.7015893679 
H 9.5845659768 1.5744332311 7.1188858755 
O 10.3830589968 0.9722400724 5.7257540071 
O 12.9447778672 4.5749122179 5.7196157488 
H 13.3843413056 4.9236413959 4.9047235444 
H 12.0172550264 4.9163268904 5.7002364060 
H 11.3106055606 1.3133265827 5.7066336529 
O 12.9317708555 1.8795717476 5.6948690206 
H 12.9400661080 2.8688326315 5.7142410579 
H 13.4016095448 1.5778445296 6.5107413608 
O 14.2268248156 1.0139633984 7.9018899478 
H 13.7580036843 1.3245146538 8.7161595875 
O 2.7652377603 5.5065563876 5.6785856676 
H 3.6955324295 5.1697815833 5.7012609590 
H 2.3255353321 5.1652945899 6.4956405776 
O 2.7298325052 8.2026428572 5.6891842576 
H 2.7676575118 7.2136006235 5.6907047389 
H 3.6693610886 8.5129149099 5.6875417197 
O 1.4676091040 9.0708008602 7.9252819127 
H 1.9392749840 8.7653386764 7.1122810876 
O 5.2893670864 9.0756372697 5.6693883397 
O 6.5672192294 5.5140297763 7.8887071108 
H 7.4947120395 5.1686051020 7.9111728553 
H 6.1247838555 5.1677216788 8.7028677609 
H 9.9206807317 5.1748403406 6.4931445629 
H 5.7516408779 8.7635039553 6.4865729621 
O 6.5736065796 8.2063965912 7.8729351819 
H 6.5682389176 7.2172662980 7.9051198632 
H 6.1068034433 8.5128361471 8.6885633700 
H 9.9334236322 8.5128234467 4.9057273429 
O 9.1225872126 9.1118995746 7.9256405951 
H 8.1941242949 8.7735407666 7.8985050116 
H 9.5656961774 8.7719705735 7.1097381327 
O 10.3735325991 8.1765453101 5.7244672858 
O 10.3949945204 5.4762329178 5.6790753548 
H 10.3833996628 6.4653546387 5.7008696939 
O 14.2186666979 5.4733419238 7.9211478998 
H 13.7456052525 5.1720492694 7.1063022075 
H 14.2018941396 6.4622874245 7.9009089436 
H 11.3024013215 8.5142031337 5.6990599011 
O 12.9190576096 9.0724661452 5.6828041263 
H 13.3904518410 8.7705795929 6.4991792438 
O 14.1839912321 8.1795458151 7.8845432302 
H 15.1120532819 8.5220506105 7.9086257145 
H 13.7417653987 8.5146727047 8.7027890692 
H 4.3889520332 12.1165834033 5.7220065221 
O 2.7784814967 12.6750786614 5.7265892925 
H 2.7651006058 13.6644826279 5.7027904224 
H 2.3063137511 12.3705984356 4.9131493518 
O 1.4769077376 11.7534431305 7.9060400368 
H 1.9653380177 12.0969070779 8.6953849595 
H 1.9549368938 12.1001084104 7.1127312607 
H 1.4925940637 10.0612425697 7.9043020850 
O 5.3148189631 11.7676963890 5.7060554261 
H 5.7564164630 12.1103151861 6.5206375813 
H 5.2991566570 10.0642484808 5.7071829570 
O 6.5551389117 12.6758086954 7.9398756301 
H 7.4973979467 12.3762957367 7.9362999030 
H 6.5799012743 13.6653424526 7.9335986593 
H 9.9459986894 12.3522132309 4.9178023977 
O 9.1217976974 11.8064279533 7.9476642454 
H 9.1266054572 10.8172251695 7.9168648067 
H 9.5898048711 12.1092541073 7.1301701021 
H 14.2103759115 14.4045093176 7.9300412637 
O 12.9510507551 11.7768587517 5.7352387459 
H 12.0211302002 12.1146835972 5.7072611473 
H 13.3965311057 12.1141282602 4.9199116188 
O 10.4142964313 12.6609852552 5.7325057683 
H 10.3960129556 13.6503481061 5.7042851851 
H 12.9351968420 10.0613041823 5.7063963487 
O 14.1948230887 12.6821274452 7.9495506630 
H 13.7516887708 12.3515709060 7.1292695897 
H 15.1226003990 12.3414328889 7.9194274624 
O 1.5239340043 1.9185294385 12.2850333990 
H 1.9622790263 1.5727527814 13.1021116473 
H 0.5936750326 1.5823337804 12.3079468702 
H 4.3951304617 4.9027254618 10.1108184046 
H 4.3940055898 1.5785512170 10.1053776056 
O 1.5327433557 4.6102897896 12.3076927226 
H 0.5882315625 4.9051670681 12.3084487307 
H 1.5134691901 3.6204269272 12.3112050795 
O 2.7935222460 0.9885180351 10.0883080355 
H 2.3089924953 1.3275386819 10.8806616302 
H 2.3097505207 1.3287927860 9.2958221812 
O 5.3380000456 4.6034649937 10.1144262456 
H 5.3156282612 3.6137135818 10.1165939833 
O 5.3249322949 1.9112292092 10.1381397407 
H 5.7673848993 1.5772840380 9.3186562233 
O 6.6049145067 1.0050137857 12.3194443641 
H 6.1126359807 1.3376942320 13.1105747654 
H 6.1173163791 1.3371419710 11.5251348318 
O 9.1357202146 1.9171931243 12.2903809475 
H 8.2050493898 1.5814558656 12.3184731491 
H 9.5774343012 1.5744717261 13.1060149129 
O 9.1183026018 4.6091792645 12.2729990121 
H 9.1275318017 3.6198943466 12.3020331339 
H 9.5795193545 4.9145917978 13.0925361723 
H 9.9355872582 1.3263166115 10.9103874981 
O 12.9530009790 4.5794227297 10.1180967206 
H 12.0262832363 4.9243689347 10.0977771454 
H 13.3935452584 4.9207321693 9.3002767945 
O 12.9671952478 1.8935993227 10.1144852559 
H 12.0269668613 1.5863042130 10.1172975823 
H 12.9360179420 2.8832516803 10.1084855494 
O 10.4078580401 1.0253475580 10.0946104531 
O 14.2335543350 1.0296372029 12.3335877312 
H 13.7600691176 1.3376605635 11.5214652662 
O 2.7826999768 5.4675433459 10.0842753492 
H 2.3111022329 5.1619764721 10.8994724297 
H 2.7603700991 6.4558760592 10.1057143263 
O 1.4847410903 9.0723257390 12.3422004928 
H 1.9483768880 8.7631295086 11.5248307471 
O 2.7366995958 8.1711568435 10.1273988995 
H 3.6621052893 8.5196395143 10.1029297827 
H 2.2902024007 8.5149545866 9.3144441422 
O 5.2797933983 9.0798133986 10.0854291660 
O 6.5747460880 5.5174290119 12.3239058373 
H 6.1272116756 5.1664862991 11.5142887419 
H 7.5003298547 5.1697879698 12.3003214327 
H 9.9377641147 5.1755799864 10.8936000224 
H 5.7507792343 8.7746897334 10.8990740627 
O 6.5842861812 8.2160216080 12.2972797468 
H 6.5732748750 7.2271929522 12.3170573462 
H 6.1129306214 8.5181802694 13.1118501245 
O 9.1337767984 9.0897509983 12.3022044719 
H 8.1920819569 8.7858784933 12.3070173725 
H 9.9242220289 8.5214654519 9.3216755129 
H 9.9194627067 8.5240152493 10.9038294526 
O 14.2485772871 5.4913279048 12.3072508626 
H 13.7626587236 5.1597176921 11.5126484565 
H 13.7518948436 5.1591274118 13.0959845096 
O 10.4079623612 5.4855862897 10.0797361612 
H 10.3916139560 6.4742893101 10.1088250964 
O 12.9423122574 9.0896026423 10.1023729960 
H 12.0123522933 8.7531881811 10.1267411135 
H 13.3868765717 8.7524176178 10.9177868020 
O 10.4085446659 8.1825493454 10.1141590263 
O 14.1883388764 8.2001615205 12.3327621542 
H 15.1292897084 8.5062058143 12.3306994977 
H 14.2190010205 7.2118925628 12.3270367995 
H 1.4959517081 10.0611282294 12.3092689706 
O 1.4986278274 11.7702326371 12.3193633798 
H 1.9422113826 12.1073385748 11.5020610838 
H 0.5730767532 12.1173430112 12.2975337614 
O 2.7418467403 12.6595398698 10.0951996926 
H 2.7660654064 13.6482211108 10.0897868596 
H 3.6857566040 12.3596080251 10.1050737887 
O 5.2761696068 11.7703752661 10.1230099876 
H 5.7578490031 12.1119845737 10.9171388478 
H 5.7667700790 12.1160756936 9.3358539985 
O 6.5485292479 12.6771233157 12.3174084795 
H 6.5704494622 13.6662340463 12.3143907097 
H 7.4939535264 12.3824380040 12.3141336832 
H 5.2932531840 10.0694409656 10.1136525557 
H 9.1067307457 10.0779726228 12.3037278866 
O 9.0843690562 11.7993710508 12.3163518138 
H 9.5764570899 12.1289768209 13.1079413205 
H 9.5756682824 12.1333210389 11.5244750250 
H 9.9451222326 12.3598479408 9.3252508811 
H 10.3996622060 14.4147031049 10.1190395164 
H 14.2102754804 14.4184964944 12.3083199633 
O 12.9187404307 11.7963071665 10.1364192513 
H 12.9284076340 10.8075450522 10.1207028875 
H 13.3918807987 12.0910457970 9.3177834177 
O 14.2210375611 12.7198181161 12.3086764169 
H 13.7407205689 12.3709334575 13.0989968998 
H 13.7405505997 12.3728003976 11.5169481803 
O 10.3873278638 12.7035684041 10.1410918406 
H 11.3145894793 12.3590840677 10.1201685000 
O 2.7787493416 1.0149843747 14.4834575989 
H 2.3060582264 1.3161296280 15.2999264297 
H 4.3737866514 1.5754706640 14.5080124906 
O 1.4925710978 4.6203501804 16.7306478173 
H 1.9634204697 4.9252151238 15.9146602532 
H 1.5040988510 3.6320848465 16.7042135697 
O 1.5139724886 1.9072909691 16.6818380888 
H 0.5832355300 1.5744524963 16.7136048702 
H 1.9580169686 1.5720459598 17.4999363709 
O 5.2937620211 4.6251326803 14.5257502707 
H 5.7684629962 4.9263690904 13.7116301846 
H 5.3013702873 3.6360334745 14.4998321039 
O 5.3018792017 1.9196006033 14.4898715916 
H 5.7404996290 1.5792507491 15.3072776453 
O 6.5442815290 0.9807124224 16.7053240066 
H 6.1009584984 1.3265116041 17.5187293103 
H 7.4715171812 1.3233794956 16.7267603526 
O 9.1281492355 4.5854688971 16.6851713672 
H 8.2017020942 4.9292121336 16.7143378774 
H 9.5760329144 4.9247474911 17.4997893290 
O 9.0900986173 1.8816834524 16.7340859550 
H 9.5655743264 1.5768616963 15.9224408516 
H 9.1063556715 2.8701125369 16.7115119052 
O 10.3665953844 1.0122606900 14.5209326190 
O 12.9365193803 4.5919335826 14.4802249819 
H 13.3787830504 4.9304854356 15.2966447020 
H 12.0075337601 4.9311725567 14.5042888946 
H 11.3057609755 1.3206359023 14.5187326706 
O 12.9291913056 1.8909102445 14.5344964818 
H 13.4016604594 1.5877223555 13.7200999235 
H 12.9331313550 2.8794374843 14.5047338731 
O 14.2308558844 0.9960496383 16.7205606513 
H 13.7458196562 1.3381252140 15.9294064893 
H 13.7477654900 1.3381556279 17.5126836993 
O 2.7557998157 5.5232937573 14.5353435129 
H 3.6843887130 5.1830143869 14.5069157919 
H 2.3128555789 5.1801651785 13.7198454438 
O 2.7613508649 8.2130486987 14.5607529648 
H 2.7556620225 7.2236788289 14.5287112522 
H 2.3010684512 8.5187042429 13.7405446870 
H 4.3828008704 8.7792383911 14.5322344866 
O 1.4500610796 9.1100061682 16.7386622824 
H 1.9340120219 8.7648883913 15.9475536795 
H 1.9307300354 8.7622347626 17.5296984729 
O 6.5770591674 5.4870557069 16.7471236618 
H 6.5651717677 6.4766111801 16.7255818051 
H 6.1141556148 5.1866066099 15.9271256998 
H 9.9276325836 5.1790420033 15.3041220120 
O 5.3240279920 9.0822643270 14.5299870691 
O 6.5523241608 8.1788647269 16.7491655483 
H 7.4817735952 8.5171726155 16.7232109955 
H 6.1089778896 8.5235115760 15.9343971069 
H 9.9308935949 8.5319673254 13.7115944002 
O 9.0833745129 9.0982697798 16.7201228384 
H 9.5740932725 8.7524264604 17.5081894928 
H 9.5670060523 8.7670946469 15.9240646250 
O 10.3725493168 8.1878174377 14.5259882661 
O 10.3984620522 5.4818092713 14.4876772047 
H 10.3826525799 6.4705515426 14.5095263564 
O 14.1890258146 5.5157857003 16.6930561540 
H 15.1177013327 5.1793137243 16.7174880107 
H 13.7460237535 5.1716851133 17.5089290328 
H 11.3011398376 8.5281851444 14.5089168495 
O 12.9043972105 9.1095041068 14.5200886778 
H 13.3950814674 8.7657702779 13.7330360285 
H 13.3853449882 8.7676464602 15.3152324553 
O 14.1649230024 8.2106419903 16.7144851047 
H 14.1954924563 7.2209117464 16.7134103132 
H 15.1065948239 8.5152981194 16.7229710645 
H 2.7652066659 14.4038254984 14.5068876206 
H 4.3843080213 12.1143199724 14.5131972238 
O 2.7840973897 12.6964727238 14.5072979170 
H 2.2960980656 12.3582167956 15.2994606706 
H 2.2987867174 12.3595666944 13.7146962579 
O 1.5187151036 11.8080662426 16.7024032979 
H 0.5790198631 12.1183920637 16.7101261558 
H 1.4846798761 10.8194215867 16.7174951953 
O 5.3132438390 11.7738905425 14.5383713063 
H 5.7578802632 12.1179829649 13.7246925255 
H 5.2966248961 10.0717517541 14.5235730972 
O 6.5804291317 12.6556395057 16.7450309394 
H 6.5605181049 13.6446041887 16.7265580758 
H 6.1068149510 12.3554091692 15.9293730144 
H 9.9488225644 12.3570740440 15.3191637124 
O 9.1393332487 11.7984509751 16.7308108434 
H 9.1164437411 10.8091842502 16.7319751859 
H 8.1963130482 12.0969198006 16.7284255607 
H 10.4009784934 14.4012972526 14.5195600554 
O 12.9225280254 11.7999711137 14.4909489071 
H 12.9328398521 10.8101142218 14.5194432237 
H 13.3934198043 12.1058210811 15.3044561758 
O 10.3909295818 12.6995942777 14.5044808677 
H 11.3185384132 12.3537618599 14.5226554115 
O 14.2262067813 12.6797995959 16.6953998453 
H 13.7506295155 12.3745714687 17.5072626962 
H 14.2080082169 13.6686681554 16.7204178975 

