&CONTROL
   calculation      = 'vc-relax'
   tstress          = .true.
   tprnfor          = .true.
   outdir           = './'
   pseudo_dir       = '/global/homes/p/ppiaggi/QuantumEspresso/pseudos'
/
&SYSTEM
   ecutwfc          = 150
   input_dft        = 'SCAN'
   ntyp             = 2
   nat              = 384
   ibrav            = 0
/
&ELECTRONS
   mixing_beta      = 0.5
   startingpot      = 'atomic'
   startingwfc      = 'atomic+random'
/
&IONS
/
&CELL
/

ATOMIC_SPECIES
O 15.999400004115753 O_ONCV_PBE_sr.upf
H 1.0079400002592869 H_ONCV_PBE_sr.upf

K_POINTS gamma

CELL_PARAMETERS angstrom
15.24947016854727 0.00000000000000 0.00000000000000
0.00000000000000 14.37114248657484 0.00000000000000
0.00000000000000 0.00000000000000 17.61654205720744

ATOMIC_POSITIONS angstrom
O 1.4966106669 1.9222772922 3.5327458736 
H 1.9417092557 1.5697315086 2.7223721566 
H 0.5685433237 1.5814136168 3.5085263464 
H 4.3725258242 4.9176832092 1.2955973623 
O 5.2542073020 1.8982469232 1.2895535620 
O 1.4704047897 4.6202393818 3.4925054809 
H 1.4826847410 3.6309016008 3.5126909373 
H 1.9393203376 4.9218486667 4.3103864605 
O 2.7210162996 1.0011270926 1.3196026334 
H 3.6646166891 1.3007540805 1.3054993864 
H 5.2819410253 3.6220039052 1.2884903185 
O 5.3127213001 4.6099755901 1.2887633927 
H 5.7424251306 1.5581794973 0.4995648115 
H 5.7455330110 1.5692644069 2.0820548509 
O 6.5515507912 0.9917202054 3.4782043146 
H 6.1126421914 1.3353894049 4.2943045164 
H 7.4824644816 1.3256936619 3.4998937410 
O 9.0835188292 1.9015982682 3.4983331923 
H 9.5770904570 1.5643652005 4.2868342917 
H 9.5694820030 1.5709527301 2.7021186090 
O 9.0890299480 4.6027738300 3.5297594981 
H 9.5636188343 4.9028757722 2.7142084765 
H 9.0983414372 3.6136986689 3.5051541931 
O 10.3556266067 1.0260162686 1.2927937331 
O 12.9003411619 4.5975496962 1.2920992888 
H 13.3866982452 4.9314382725 0.4982738424 
H 13.3928997709 4.9314861751 2.0823979339 
O 12.9096704522 1.8987578783 1.2742218615 
H 12.9260569780 2.8877002491 1.2980831155 
H 13.3812421440 1.5924333602 2.0890870116 
H 11.2944383349 1.3382108041 1.2989675394 
O 14.1974546111 1.0288718299 3.4736617999 
H 13.7316964574 1.3356926543 4.2901197746 
O 2.7586116289 5.4841790039 1.2858202379 
H 2.7457804475 6.4727939462 1.3100098666 
H 2.2921855470 5.1803949421 2.1037156755 
O 1.4943869693 9.1075287225 3.5405068351 
H 0.5649203979 8.7698378528 3.5049467188 
H 1.9401400950 8.7752318721 2.7213859021 
O 2.7371885932 8.1871727276 1.3336270608 
H 2.2979402084 8.5281024192 0.5153229372 
H 3.6668021535 8.5226632921 1.3112538765 
O 5.2751745623 9.1051269046 1.3126875199 
O 6.5671549158 5.5173126788 3.5151795963 
H 7.4938967046 5.1679066760 3.4956997803 
H 6.1235380507 5.1742625194 2.7017333867 
H 9.9226833309 5.1615539706 0.5202632024 
H 5.7580093968 8.7711705906 0.5170805890 
H 5.7684315978 8.7654778277 2.1005004202 
O 6.5527973378 8.2098892195 3.5016778443 
H 6.5815872200 7.2201016636 3.4988227740 
H 7.4939303057 8.5126923508 3.4986107425 
O 9.1213138074 9.0753772095 3.4767871041 
H 9.5891004822 8.7659085832 4.2912697666 
H 9.9310569854 8.5151362053 2.0967725129 
O 10.3628669978 5.4981933882 1.3388269136 
O 14.1888123295 5.5137466361 3.4722312896 
H 15.1194922918 5.1767706984 3.5015826953 
H 13.7455003634 5.1777460362 4.2895312338 
H 11.2948467310 5.1681955233 1.3064888320 
O 12.9378707798 9.1111623182 1.3126707244 
H 13.3838316893 8.7607777274 0.5011315653 
H 12.0118165486 8.7643125728 1.2937830917 
O 10.3962558749 8.2041824823 1.2798644974 
H 10.3793192934 7.2160242040 1.3090342154 
O 14.2091321567 8.2150506327 3.5088996781 
H 13.7368962222 8.5185960633 2.6932806034 
H 14.1966977019 7.2254190127 3.4850664142 
H 2.7441359985 14.3832577401 1.3148389084 
O 1.4820446766 11.8023301222 3.5461064640 
H 1.9495833563 12.0941191082 2.7240146497 
H 1.4914270146 10.8124389131 3.5305719708 
O 2.7331355602 12.6697774701 1.3281337747 
H 2.2904093960 12.3353249019 0.5098305228 
H 3.6651626820 12.3343678815 1.2976439981 
O 5.2668172712 11.7946667124 1.3220088123 
H 5.7448958193 12.0966962197 0.5095279482 
H 5.2862608084 10.8048455788 1.3031589710 
O 6.5742730554 12.6614539714 3.5258800639 
H 6.0997604956 12.3587868244 2.7131188454 
H 6.5620347109 13.6503094139 3.5026704152 
H 9.1316576624 10.0646512723 3.5090956952 
O 9.1343745590 11.7662082114 3.4890314087 
H 8.2065389399 12.1048935566 3.5142596497 
H 9.5775640700 12.1080594246 4.3059027498 
H 9.9472082259 12.3633620330 2.0962645300 
H 10.3932693923 14.4081525009 1.2994079519 
H 14.1899695743 14.4104348395 3.5052718664 
O 12.9254681029 11.8153700939 1.2871495422 
H 13.3925902613 12.1186137564 2.1048594617 
H 12.9345734483 10.8265070493 1.3090752253 
O 14.1886557885 12.7128431486 3.4954445751 
H 15.1153885424 12.3688864866 3.5205960247 
H 13.7441045816 12.3663472202 4.3082904407 
O 10.3879287771 12.7044044804 1.2799179940 
H 11.3190060343 12.3695029269 1.3061381931 
O 2.7696492862 1.0332520660 5.7405179317 
H 2.2974038821 1.3359977213 4.9256741990 
H 4.3848507872 1.5976331415 5.7148761624 
O 1.4877152681 4.6149624401 7.8948074374 
H 1.9621323481 4.9239168751 8.7057753065 
H 1.5012374467 3.6253694223 7.9263604764 
O 1.4732490457 1.9265998238 7.9260002130 
H 1.9565028953 1.5759514205 8.7148550897 
H 1.9554408062 1.5844646324 7.1319218613 
O 5.2845799765 4.5991554557 5.7060971595 
H 5.7720180888 4.9381958043 6.4970852498 
H 5.7672288622 4.9380023676 4.9126708366 
O 5.3276955570 1.8962313922 5.7128485380 
H 5.3057673456 2.8851079630 5.7128381188 
O 6.5784208752 0.9691222512 7.9147329661 
H 6.1289660657 1.3191961212 7.1061429592 
H 7.5045278832 1.3160566192 7.8907185008 
H 9.9350521362 1.3275144592 6.4926965586 
O 9.1226767207 4.5731400261 7.8925524602 
H 8.1958274681 4.9213774813 7.9152624160 
H 9.5665810201 4.9101519611 8.7087144020 
O 9.1162214046 1.8836771180 7.8710889908 
H 9.1213232674 2.8739428514 7.8985200220 
H 9.5865885325 1.5839263612 8.6883585524 
O 10.3789334032 0.9828635259 5.6776397909 
O 12.9433052582 4.5906153451 5.6832000435 
H 12.0141761633 4.9291549181 5.7122667842 
H 13.3890128389 4.9305788037 6.4974830673 
H 11.3061863009 1.3279411825 5.7015887225 
O 12.9115753035 1.8952749721 5.6853418990 
H 13.3833028993 1.5925067505 6.5002905485 
H 12.9240915807 2.8846660530 5.7090161578 
O 14.1806724320 1.0348269344 7.9112047067 
H 15.1227719730 1.3373782811 7.9156410689 
O 2.7384706289 5.5111347376 5.6898126113 
H 2.3021796107 5.1690140776 6.5096562428 
H 3.6689225478 5.1776031810 5.7094904619 
O 2.7686334537 8.2185644526 5.7307074089 
H 2.2944609962 8.5209149230 4.9154604252 
H 2.7523728476 7.2299426348 5.7096759467 
H 4.3778183001 8.7687559791 5.7047351163 
O 1.4949432984 9.0924485493 7.9431340507 
H 1.9574729386 8.7916243446 7.1218401442 
O 6.6042190561 5.4879230514 7.8834114774 
H 6.5905004416 6.4771082935 7.9091587869 
H 6.1235287906 5.1825024081 8.6943606309 
H 9.9185510025 5.1638959450 4.9176120840 
H 9.9265264296 5.1690927810 6.4999561290 
O 5.3063544573 9.1105240764 5.7283356219 
H 5.7510813657 8.7677337919 4.9147674821 
O 6.6053561657 8.1867701613 7.9136437584 
H 6.1135126239 8.5263652728 7.1257546163 
H 6.1196475421 8.5178553378 8.7102994492 
H 9.9440251761 8.5063052196 6.4946572377 
O 9.1525304837 9.0662878690 7.9007725195 
H 8.2097337039 8.7660264648 7.9071364134 
O 10.4079401966 5.5070997519 5.7052703798 
O 14.1847090242 5.4906473789 7.9097808888 
H 14.2191356998 6.4796185405 7.9141660674 
H 15.1241872682 5.1803561642 7.9124673945 
O 10.4218495676 8.2022871456 5.6834340629 
H 10.3991766737 7.2133551725 5.7027250770 
O 12.9595140837 9.1035041892 5.7198440962 
H 13.3970635379 8.7668980152 4.8990097271 
H 12.0317989397 8.7593929687 5.7009404783 
O 14.2094544584 8.1858657562 7.9348713349 
H 15.1369057408 8.5299214156 7.9140950513 
H 13.7708126820 8.5203884934 7.1140025927 
H 2.7570852319 14.4143414986 5.7155279914 
O 2.7506491113 12.7144105852 5.7334736194 
H 2.3052840284 12.3705617198 4.9186643054 
H 3.6772930771 12.3687433835 5.7093595432 
O 1.5109921214 11.7888888622 7.9365112730 
H 0.5801509691 12.1233367332 7.9110728614 
H 1.9522330546 12.1269798224 7.1179657179 
H 1.5037727588 10.0818827956 7.9197613904 
O 5.2835391347 11.8011530135 5.7394402374 
H 5.7494583549 12.1061776025 4.9219499683 
H 5.2923404627 10.8115306106 5.7084081747 
O 6.5800684394 12.6506263291 7.9459305432 
H 6.1115332789 12.3480817908 7.1286596479 
H 6.5781389705 13.6400376715 7.9139696088 
H 9.9286168581 12.3552050287 6.5021202432 
O 9.1346529384 11.7592953979 7.8906062606 
H 8.2042609016 12.0940729315 7.9171705751 
H 9.5782332863 12.1099574832 8.7033514735 
H 9.1264820572 10.0558859055 7.9077578895 
H 14.2076522767 14.4168080779 7.9125341105 
O 12.9623900268 11.7949260302 5.7180504713 
H 12.0197448753 12.0934148556 5.7186521980 
H 12.9408993445 10.8048995124 5.7152353501 
O 10.3995910990 12.6588821340 5.6865993373 
H 10.3846704473 13.6485856372 5.7087747768 
O 14.2291521842 12.7039532637 7.9127911945 
H 13.7476799271 12.3576652514 7.1206342035 
H 13.7455200476 12.3596630556 8.7039487467 
O 1.5113863787 1.9272724850 12.3337054041 
H 0.5861584993 1.5770695520 12.3077488479 
H 1.9600706021 1.5814107449 11.5234339866 
H 4.3960408828 4.9276645804 10.0942813256 
O 1.5310142621 4.6168062772 12.3271365125 
H 1.4943133637 3.6272459165 12.3183602062 
H 0.5925839627 4.9286875948 12.3178769763 
O 2.7520528479 1.0104465186 10.1155490978 
H 3.6945836007 1.3121900596 10.1022277839 
O 5.2992935240 1.8788759779 10.1038259189 
O 5.3228229760 4.5812832164 10.0607563706 
H 5.7706535039 4.9130018853 10.8778779649 
H 5.7743561518 1.5674056624 9.2935559311 
H 5.3134832129 2.8677634856 10.0731073407 
O 6.5824660380 1.0183648178 12.3213726538 
H 6.1149917879 1.3213811160 11.5042697555 
O 9.1357897507 1.8871785271 12.3137280795 
H 8.1942966583 1.5837670178 12.3089336721 
H 9.1089257343 2.8766115907 12.3169564100 
O 9.0936230039 4.5832419866 12.3183191661 
H 9.5759288109 4.9255070123 13.1117057722 
H 9.5835197956 4.9233093240 11.5283227369 
H 9.9358449596 1.3362847400 10.8966754268 
O 10.3819073986 0.9985518229 10.0815732782 
O 12.9143853094 4.6273112359 10.1275002153 
H 13.3887834442 4.9364135280 9.3162783717 
H 12.9391193414 3.6376133424 10.1039424930 
O 12.9137740704 1.9420993430 10.1053005136 
H 13.3987989481 1.5934710792 10.8936065343 
H 13.3965847360 1.5986070909 9.3126993460 
H 11.3080713336 1.3449811020 10.1072265508 
O 14.2286600132 1.0118725960 12.2749456434 
H 13.7503202872 1.3059894305 13.0902291891 
O 2.7970640623 5.4881347962 10.0963544704 
H 2.3274879986 5.1812541657 10.9104119764 
H 2.7752250100 6.4779686449 10.1196991290 
O 1.5275982115 9.0719321826 12.3113068500 
H 0.5847960758 8.7712060423 12.3139790061 
H 4.3923199729 8.7587144534 10.1154785209 
O 2.7935328533 8.1764320282 10.1182386748 
H 2.3136673544 8.5269398439 9.3270655370 
H 2.3116225653 8.5214600350 10.9112434985 
O 6.5655565649 5.4991323944 12.2709838798 
H 6.1232081108 5.1688184590 13.0912915869 
H 7.4968674035 5.1667766968 12.3041824099 
O 5.3356688026 9.0600009980 10.1154843809 
O 6.5940410824 8.2036808245 12.3281585680 
H 6.1169369954 8.5058391907 11.5147351213 
H 6.5786477134 7.2150233307 12.3050323771 
O 9.1375598363 9.1128760224 12.2798697499 
H 9.5757205454 8.7690807453 13.0972539117 
H 8.2100057673 8.7709560397 12.2995422914 
H 9.9379992713 8.5191833653 10.8879515694 
H 9.9372416601 8.5108918052 9.3038763483 
O 10.3642427349 5.4747771501 10.1241876051 
O 14.2233916100 5.4967388921 12.3297603162 
H 13.7505790136 5.1906006871 11.5168950446 
H 14.2083784690 6.4862970716 12.3046082708 
H 10.3903703953 6.4638231500 10.1160780094 
H 11.3077562603 5.1743524895 10.1195255381 
O 12.9517703862 9.1061952688 10.1311052139 
H 13.3969307637 8.7716713918 9.3135774335 
H 12.0224890437 8.7684837330 10.1014192324 
O 10.4239831863 8.1763158398 10.0979532995 
O 14.2313039315 8.1868213742 12.3129454886 
H 13.7489847651 8.5268782605 11.5184293611 
H 13.7437589063 8.5286983557 13.1024600506 
H 2.7774889441 14.3923960438 10.1158966484 
H 1.5013045081 10.0616868966 12.3167318462 
H 4.3986719950 12.0833485951 10.1170849631 
O 1.5112444270 11.7650913652 12.2971916116 
H 0.5799091310 12.0986137967 12.3140209514 
H 1.9470816368 12.1138557426 13.1135333843 
O 2.8011486644 12.6790829258 10.1170732708 
H 2.3101253279 12.3448360928 10.9078451896 
H 2.3120522535 12.3515390667 9.3216020852 
H 6.5688956336 14.3999966256 12.3003869736 
O 5.3293582588 11.7483002530 10.1381857812 
H 5.7662667392 12.0923247448 9.3185330291 
O 6.6012713494 12.6992794060 12.3118853793 
H 6.1211418142 12.3482887309 11.5207025158 
H 6.1165735703 12.3586222441 13.1036610584 
H 5.3103627889 10.0503292470 10.1143314424 
O 9.1465507045 11.8090309097 12.2994156992 
H 9.1181585453 10.8197095217 12.2998406345 
H 8.2049537152 12.1126087423 12.3052020494 
H 9.9328632273 12.3673819472 10.8930026844 
H 14.2133572404 14.3939565864 12.2882551509 
O 12.9612996963 11.7986760586 10.1091039582 
H 12.9322189796 10.8088226908 10.1083731410 
H 12.0199217667 12.1032360371 10.1040632260 
O 14.2303435749 12.6820854694 12.3018217298 
H 13.7434065481 12.3526198058 13.0972552204 
H 13.7385071534 12.3424212500 11.5126908371 
O 10.4021834790 12.6726526532 10.0766342384 
H 10.3897877106 13.6616816606 10.1018645098 
H 4.4041102583 4.9264233390 14.5147979528 
O 2.7642589604 1.0101072833 14.5513045128 
H 3.6959133356 1.3418934286 14.5226344123 
H 2.3241051085 1.3466262962 13.7324947628 
O 1.4832927799 4.6035951952 16.7003013002 
H 1.9479026045 4.9095446429 17.5186809599 
H 1.4900144519 3.6143455022 16.7283003654 
O 1.4625173941 1.9081332654 16.7345766341 
H 1.9400548521 1.5666796100 17.5311732066 
H 1.9597057093 1.5770606695 15.9464265809 
O 5.3108224867 1.8881953983 14.5336316335 
O 5.3339339330 4.5898712268 14.4885572927 
H 5.7756377283 4.9307631457 15.3055623048 
H 5.7711506056 1.5841351921 13.7117945017 
H 5.3261773658 2.8773406032 14.5100587225 
O 6.5562596138 0.9658257468 16.7321666696 
H 7.4849296421 1.3066306571 16.7181343420 
H 6.1246330189 1.3137615399 15.9129336780 
H 9.9127735924 1.3267033199 13.7117995780 
H 9.9217806697 1.3200713959 15.2960417628 
O 9.1275281689 4.5711559543 16.7318944711 
H 9.5746508857 4.9183139545 15.9216840866 
H 8.2021243100 4.9184779254 16.7108492726 
O 9.0980446699 1.8740086780 16.6910975347 
H 9.1088499533 2.8630853614 16.7057219365 
H 9.5723754567 1.5777513515 17.5074825898 
O 12.9316388401 4.6129219822 14.5289413775 
H 13.3995447990 4.9242861354 13.7149566138 
H 12.9422090959 3.6249292454 14.4932048318 
O 10.4025864088 0.9827045842 14.5003552648 
O 12.9468424877 1.9016727952 14.4619436179 
H 13.3823175244 1.5717525443 15.2865779375 
H 12.0170458651 1.5671816685 14.4886766906 
O 14.1724941546 1.0016862019 16.6885145138 
H 13.7275514920 1.3401789917 17.5049431500 
H 15.1033342446 1.3344296363 16.7217251324 
O 2.7967952749 5.5091054251 14.5170575143 
H 2.3100853080 5.1648082113 13.7264575546 
H 2.3157051446 5.1664034152 15.3098724763 
O 2.7996252486 8.2012543001 14.5345275984 
H 2.3251176608 8.5068174679 13.7223444573 
H 2.7792913564 7.2117017705 14.5112075640 
H 4.4008863695 8.7553290614 14.5098566607 
O 1.4871458875 9.0759857654 16.7411248808 
H 1.9608691116 8.7674995843 15.9302062775 
O 6.5898409291 5.4857010482 16.6956415712 
H 6.1090490036 5.1811753434 17.5048377128 
H 6.5758572753 6.4749696298 16.7188639094 
O 5.3276203597 9.1025664754 14.5367033157 
H 5.7735459720 8.7629993762 13.7222114136 
O 6.5662547008 8.1842654462 16.7394632478 
H 7.4942641296 8.5238818568 16.7156713513 
H 6.1234309795 8.5230244239 15.9219130930 
H 9.9321980588 8.5142057662 15.3016363358 
O 9.1134733439 9.0782572437 16.6877781402 
H 9.5832007989 8.7722721875 17.5030964195 
O 10.3661271419 5.4846779342 14.5111024324 
O 10.3747023779 8.1756089745 14.4840553025 
H 10.3921799016 6.4746948913 14.5044678818 
H 11.3071909175 5.1818297926 14.5085530123 
O 14.1924293310 5.5148257252 16.7231299894 
H 13.7542044822 5.1671347034 15.9067107695 
H 15.1195380751 5.1700889934 16.7090363029 
H 11.3024911129 8.5178752699 14.5115099727 
O 12.9109691381 9.0811190486 14.4940029322 
H 13.3777527276 8.7754123571 15.3101945167 
O 14.1742269915 8.2031004048 16.7244932961 
H 14.2028271609 7.2133681078 16.7133150748 
H 15.1146348173 8.5081373099 16.7204801325 
O 2.7369276185 12.6831462140 14.5180997083 
H 3.6772681401 12.3753890347 14.5201413484 
H 2.7674792366 13.6719539789 14.5245095727 
O 1.4844744916 11.7645158489 16.7187076259 
H 0.5600981946 12.1145229207 16.6911605466 
H 1.9394622143 12.1147175549 15.9129972912 
H 1.4907134539 10.0654536913 16.7046828012 
O 5.2850389731 11.8004618124 14.4979963677 
H 5.7598449675 12.0976027346 15.3131035319 
H 5.3026939211 10.8113190672 14.5154791666 
O 6.5501894808 12.6487472030 16.7277074436 
H 6.5759034145 13.6387268111 16.7211642162 
H 7.4920078537 12.3476839357 16.7267364353 
H 9.9329235280 12.3656456265 13.7097381139 
O 9.1062408435 11.7726280425 16.7182282508 
H 9.5922035217 12.1164027055 17.5086097745 
H 9.5863654521 12.1142168531 15.9240933337 
H 9.1316107432 10.0675785580 16.7123426949 
O 12.9411859540 11.7690773891 14.4940375921 
H 12.0131923308 12.1125087021 14.5095777883 
H 13.3813083854 12.1197299208 15.3091464480 
O 10.4061637463 12.6688861432 14.5240035759 
H 10.3892920664 13.6590556560 14.5020312129 
H 12.9267098264 10.0713639490 14.5213651243 
O 14.1959797756 12.6810791511 16.6787179232 
H 14.1827481246 13.6708637874 16.7017252349 
H 13.7358939037 12.3801437591 17.5004663985 

