&CONTROL
   calculation      = 'vc-relax'
   tstress          = .true.
   tprnfor          = .true.
   outdir           = './'
   pseudo_dir       = '/global/homes/p/ppiaggi/QuantumEspresso/pseudos'
/
&SYSTEM
   ecutwfc          = 150
   input_dft        = 'SCAN'
   ntyp             = 2
   nat              = 384
   ibrav            = 0
/
&ELECTRONS
   mixing_beta      = 0.5
   startingpot      = 'atomic'
   startingwfc      = 'atomic+random'
/
&IONS
/
&CELL
/

ATOMIC_SPECIES
O 15.999400004115753 O_ONCV_PBE_sr.upf
H 1.0079400002592869 H_ONCV_PBE_sr.upf

K_POINTS gamma

CELL_PARAMETERS angstrom
15.25422329867289 0.00000000000000 0.00000000000000
0.00000000000000 14.37935106876597 0.00000000000000
0.00000000000000 0.00000000000000 17.61533133841642

ATOMIC_POSITIONS angstrom
O 1.5116064491 1.9275570548 3.5194913375 
H 0.5862879498 1.5793975751 3.4953233854 
H 1.9596273652 1.5803568687 2.7087675797 
O 5.2687750692 4.5734641705 1.2964029082 
H 4.3887257508 1.5653335221 1.3069064740 
O 1.4814319544 4.6206122054 3.4846849492 
H 1.9561790926 4.9224721777 4.2985412723 
H 1.4985891270 3.6309551967 3.5042887700 
O 2.7830411277 1.0089113102 1.3337794968 
H 2.3097585637 1.3057719631 0.5165119472 
H 5.7541684380 4.9151355052 0.5055836899 
H 5.7543755543 4.9156263001 2.0878085723 
O 5.3305983419 1.8709460910 1.3059481673 
H 5.3012921078 2.8596470787 1.3013804185 
O 6.6050268857 1.0025434338 3.5210784499 
H 6.1256978642 1.3058591274 2.7104460218 
O 9.1492573470 1.8799586977 3.5155209648 
H 8.2092253800 1.5702166986 3.5089921451 
H 9.1169874880 2.8683128250 3.5063205706 
O 9.0832321939 4.5832684625 3.4926879435 
H 9.5665404117 4.9286216955 4.2842426666 
H 9.5698782372 4.9263624386 2.7021708875 
H 9.9493971243 1.3111234432 2.1156420711 
O 12.9165148303 4.6092321047 1.2754857271 
H 13.3913184669 4.9188940729 2.0861377212 
H 12.9380106232 3.6195013389 1.3011024816 
O 12.9519531252 1.9183928781 1.2779419176 
H 12.0255502729 1.5715201905 1.3119758752 
H 13.4029163547 1.5753233978 2.0886406643 
O 10.4249727289 1.0069170351 1.3028002149 
O 14.2330105959 1.0082138389 3.4681008604 
H 13.7551403823 1.3061439916 4.2831557299 
O 2.7359392593 5.5098951235 1.2744026948 
H 2.2960942776 5.1740689958 2.0947360816 
H 3.6636675668 5.1676282025 1.2979229737 
O 1.4843925788 9.1073837152 3.5037056981 
H 1.9737655708 8.7613249778 4.2901860573 
H 1.9632300624 8.7723272748 2.7066997096 
H 4.4038260917 8.7839357064 1.3036770718 
O 2.7853066750 8.2165974163 1.3082220426 
H 2.7601668738 7.2285878007 1.2867329970 
H 2.3095891053 8.5245674632 0.4969981224 
O 6.5453444804 5.4746005928 3.4925159043 
H 7.4883348415 5.1737691960 3.4884472004 
H 6.5717048599 6.4639046206 3.4913842909 
O 5.3453901634 9.0856153741 1.3137925808 
O 6.6067985478 8.1753282390 3.4990053558 
H 6.1305820134 8.5224939859 4.2934214553 
H 6.1240415036 8.5266649242 2.7094229859 
O 9.1403191595 9.0944025792 3.4795714014 
H 8.2089130611 8.7609188515 3.4997541963 
H 9.5749048172 8.7565455118 4.3012067671 
H 9.9458112362 8.5206809512 2.0950601596 
H 9.9454346776 8.5286767343 0.5130843631 
O 10.3655419053 5.4832253026 1.3002229923 
O 14.1787270894 5.4914491761 3.4956414014 
H 14.2068709911 6.4807633047 3.4995776368 
H 15.1194031165 5.1861639941 3.4983993539 
H 10.3967449973 6.4721107090 1.3033181995 
H 11.3054835869 5.1749555733 1.3043907642 
O 12.9751086342 9.0794530811 1.2992056436 
H 12.0324214602 8.7792712858 1.3011534221 
O 10.4327961971 8.1847419906 1.3020519906 
O 14.1957540566 8.1835746951 3.5299810671 
H 13.7595802698 8.5260493769 2.7102866495 
H 15.1249396886 8.5203950313 3.5071286824 
H 2.7691984608 14.3984220164 1.3153501764 
H 4.3966451282 12.1106837081 1.3059947948 
O 1.5252111484 11.8100752663 3.5045620220 
H 0.5805273220 12.1062445711 3.5034299381 
H 1.5031227310 10.8210007776 3.5064340879 
O 2.7911822808 12.6958176484 1.3128445894 
H 2.3030824887 12.3603262637 0.5212964442 
H 2.3024128221 12.3583285514 2.1048415243 
H 6.5924016284 14.3925260402 3.4980388905 
O 5.3276314588 11.7771049144 1.3249153755 
H 5.7623719689 12.1167451912 0.5035373964 
O 6.6242683063 12.6869742736 3.5011368597 
H 6.1335821888 12.3541587757 4.2928980458 
H 6.1334691949 12.3532178881 2.7092302292 
H 5.3191927388 10.0753004136 1.3082594886 
O 9.1603331172 11.7941463648 3.4967736298 
H 8.2172712700 12.0958710251 3.4999739064 
H 9.1321724899 10.8050577983 3.4984291266 
H 9.9305942601 12.3475990277 2.1021497492 
H 9.9265968050 12.3614523406 0.5171865225 
H 10.4049204839 14.3963729850 1.3237535287 
H 14.2192636898 14.3987425652 3.4890506837 
O 12.9521627551 11.7770689438 1.3243858642 
H 12.0203246046 12.1086131446 1.3045951864 
H 13.3881051666 12.1228602684 0.5055714252 
O 14.2383056038 12.6822955507 3.4999817522 
H 13.7509962334 12.3507964375 4.2941756847 
H 13.7461176556 12.3467521895 2.7089332530 
H 12.9494589861 10.0686469583 1.2980662065 
O 10.4149491401 12.6931111778 1.3102551904 
O 2.7898614381 0.9938688273 5.7040762698 
H 2.3087442163 1.3343970972 4.9097012347 
H 2.3047366098 1.3367564172 6.4943742788 
H 4.4013405532 1.5663893228 5.6926753196 
O 1.4989005031 4.5893124211 7.9367434031 
H 1.9479687261 4.9254081205 7.1226704986 
H 0.5714643747 4.9323219716 7.9046895500 
O 1.4871641079 1.8917877553 7.8888315330 
H 1.4908534657 2.8810193095 7.9171123438 
H 1.9551040194 1.5902719850 8.7060965716 
O 5.3017318103 4.5973935425 5.7299295159 
H 5.3229847247 3.6084526967 5.7038342415 
H 5.7677982742 4.9063663382 4.9141810640 
O 5.3323629699 1.8998718769 5.7195693405 
H 5.7751450056 1.5570838261 4.9038829882 
O 6.5880578213 1.0314396271 7.9274636662 
H 6.1191511315 1.3235563616 7.1058931257 
H 9.9363095417 1.3225443198 4.9149856310 
H 9.9460283025 1.3227111180 6.4969065243 
O 9.0978300621 4.6209349393 7.9185674217 
H 9.1171702406 3.6311404230 7.9013645654 
H 9.5695376083 4.9209620848 7.1024213286 
O 9.1380921703 1.9254793478 7.8857626381 
H 9.5757877955 1.5831819716 8.7045789336 
H 8.2091623828 1.5871653437 7.9048197959 
O 12.9146953216 4.6088823568 5.7030882978 
H 12.9395036731 3.6213221350 5.6747085419 
H 13.3877650987 4.9227350103 4.8924214880 
O 10.4272865886 0.9816719380 5.7037659647 
O 12.9621148639 1.8978281453 5.6595512658 
H 12.0322166490 1.5611022936 5.6892538935 
H 13.4042001759 1.5632247317 6.4777390811 
O 14.2050196564 0.9814521090 7.8798117672 
H 13.7555498303 1.3244023446 8.6913519784 
H 15.1317392229 1.3264502464 7.9091937014 
O 2.7473032219 5.4736841046 5.7069196366 
H 3.6863080944 5.1628490682 5.7094103893 
H 2.7819073966 6.4628129253 5.7008545486 
O 2.7753603147 8.1661836309 5.6721721318 
H 2.3342785391 8.5016077281 6.4912621859 
H 3.7023776082 8.5104507193 5.6963868366 
O 1.5181289448 9.0881994237 7.8792396434 
H 1.9537106241 8.7530886772 8.7018344639 
H 0.5894726085 8.7529688772 7.9013281833 
O 5.3093358376 9.0863621580 5.6761419457 
O 6.5566661157 5.5180165195 7.9289693827 
H 6.1135060319 5.1678994174 7.1167142276 
H 7.4845992340 5.1764974030 7.9047920397 
H 5.7740174253 8.7876902142 6.4974339469 
O 6.5878176825 8.2214330080 7.8857954248 
H 6.1096806147 8.5234781773 8.6980757155 
H 6.5705689015 7.2325625192 7.9068940682 
H 9.9328302223 8.5111311969 6.5035569841 
O 9.1236565417 9.1113126068 7.8877209379 
H 8.1940179379 8.7729447980 7.9100948279 
H 9.5631835553 8.7699682515 8.7045201240 
O 10.3578247631 5.4786981185 5.6882517897 
O 10.3766478615 8.1691985095 5.6884851107 
H 10.3899334288 6.4683180736 5.6931553854 
H 11.2979598567 5.1705815164 5.6843978114 
O 14.2161780690 5.4781509671 7.9162264461 
H 14.1973040939 6.4682894179 7.8914284124 
H 13.7464193020 5.1731444764 7.1016636457 
H 11.3047655392 8.5107593608 5.7121650578 
O 12.9162667260 9.0719630195 5.7243212195 
H 13.3913551467 8.7760787261 4.9086851834 
O 14.2201397032 8.1651882984 7.8970344242 
H 13.7361938221 8.5100982589 7.1056891446 
H 13.7336559446 8.5048513803 8.6877209922 
H 4.3951174798 12.1262087562 5.7048465077 
O 2.7917467017 12.6815888226 5.7251688315 
H 2.3164412732 12.3774100800 4.9128483232 
H 2.7709697007 13.6707837126 5.7050448699 
O 1.5002550900 11.7966611057 7.9344331067 
H 1.5140712495 10.8085274685 7.9023823640 
H 1.9686288196 12.1061356977 7.1205879963 
H 6.5773885983 14.4216187370 7.9160389238 
O 5.3231907598 11.7825983713 5.6836160061 
H 5.7637725081 12.1202726312 6.5015891283 
H 5.3130583787 10.0756360245 5.6995063533 
O 6.5655529338 12.7082917425 7.8966696725 
H 6.1205656452 12.3608724559 8.7096242446 
H 7.4932810487 12.3674738204 7.9183505142 
H 9.9495632699 12.3629751362 4.9098587430 
O 9.1136720259 11.8051241952 7.9264326981 
H 9.5867052009 12.1038417709 7.1112006603 
H 9.1202722741 10.8155200352 7.9059804325 
O 12.9473335206 11.7706533235 5.6916287286 
H 12.0203746718 12.1175061993 5.7110055669 
H 13.3928355913 12.1153073604 6.5040714909 
O 10.4190418075 12.6691374410 5.7244494579 
H 10.4022932265 13.6584724250 5.7004672518 
H 12.9287506708 10.0611899260 5.7098479214 
O 14.1874592750 12.6703944295 7.9120459353 
H 15.1272262746 12.3645307406 7.9137924965 
H 14.2179295730 13.6599639586 7.9089366441 
O 1.5106511913 1.8869021884 12.3231732714 
H 0.5700187976 1.5810170258 12.3159652864 
H 1.4798718813 2.8758598994 12.3225325466 
H 4.4033555538 1.5934172686 10.1080380697 
O 1.4506007251 4.5868480900 12.3222387607 
H 1.9469363266 4.9205272931 11.5349370357 
H 1.9319703170 4.9218089942 13.1184655662 
O 2.7841503402 1.0273344191 10.0986133554 
H 2.3091330502 1.3299001887 10.9113247646 
O 5.2915130510 4.6286231112 10.1339807694 
H 5.7580646227 4.9336705641 9.3158025453 
H 5.3081122589 3.6388725587 10.1077233752 
O 5.3295872888 1.9381958458 10.1297671709 
H 5.7705749867 1.5980802381 9.3120176706 
O 6.5667469082 0.9846266880 12.3425867643 
H 7.4956323977 1.3238077813 12.3256197337 
H 6.1326323307 1.3334285293 11.5258942481 
O 9.1111357516 1.8869145816 12.3072606967 
H 9.1173409637 2.8756434124 12.3293441002 
H 9.5840297456 1.5868222653 13.1226784800 
O 9.1148222910 4.5916406863 12.3422486446 
H 8.1846727215 4.9276474168 12.3187853804 
H 9.5523894811 4.9270212963 11.5215509744 
H 9.9322964188 1.3322662730 10.9027525307 
O 12.8923756716 4.5855261697 10.0995724817 
H 13.3766529704 4.9210722392 9.3060986208 
H 13.3796824675 4.9302138316 10.8883061315 
O 12.9504405283 1.8861856558 10.0925326179 
H 12.0089545973 1.5823204922 10.0972459170 
H 12.9233364019 2.8751238281 10.0977361829 
O 10.3968268565 1.0270783629 10.0848943987 
O 14.2117470420 1.0208102768 12.3268453063 
H 13.7448187468 1.3264379824 11.5103077494 
O 2.7499628273 5.5086451410 10.1507247168 
H 3.6813048721 5.1753470533 10.1201653991 
H 2.3075712225 5.1737760980 9.3326849801 
O 1.4771256817 9.0730793481 12.3004048984 
H 1.9488150918 8.7615172581 13.1127574302 
H 4.3743064426 8.7699353527 10.1065752958 
O 2.7652080815 8.2073590161 10.0951310309 
H 2.7577924165 7.2179885855 10.1236573052 
H 2.2959475946 8.5114191683 10.9114114703 
O 6.5740350547 5.4857158383 12.3333385117 
H 6.1081290737 5.1840166857 11.5132617823 
H 6.5660006537 6.4740340865 12.3081014237 
H 9.9153185346 5.1767506326 9.3082181842 
O 5.3023700887 9.1116043001 10.0762851183 
H 5.7473973441 8.7764149236 10.8942428963 
O 6.5496845568 8.1933248077 12.2798906326 
H 7.4790085636 8.5302160466 12.3122705480 
H 6.1052677336 8.5199725426 13.1008635123 
O 9.0802775817 9.1130720177 12.3177850100 
H 9.5657641576 8.7674356496 11.5280274417 
H 9.5676022456 8.7747692231 13.1097832637 
O 10.3446069396 8.2057070181 10.1220945190 
O 10.3545321480 5.5097512273 10.1298746749 
H 10.3688518140 7.2161193167 10.1186260463 
O 14.1801389550 5.5279730163 12.2674380441 
H 15.1096478314 5.1907161013 12.2988186691 
H 13.7414511755 5.1970425688 13.0899241789 
H 11.2846729538 5.1745545266 10.1010681754 
O 12.9031784084 9.0674081484 10.0833309806 
H 13.3807977008 8.7659625817 10.8959483249 
H 11.2878989352 8.5050514219 10.1190828774 
O 14.1730464643 8.2137123833 12.2951551095 
H 14.2010096364 7.2232892998 12.2970040607 
H 15.1145755503 8.5170415315 12.3082475675 
H 2.7639980483 14.4176775226 10.1188656815 
H 1.4899669029 10.0620468518 12.3318380781 
O 1.4574737062 11.7679522005 12.3237335154 
H 1.9415933436 12.1107912306 13.1158582850 
H 1.9445444215 12.1082324677 11.5331741568 
O 2.7453410880 12.7076231626 10.1378624090 
H 3.6734332919 12.3678070019 10.1171980979 
H 2.3071859677 12.3607835767 9.3217515662 
O 5.2914057003 11.8029625592 10.0811810966 
H 5.2996372362 10.8130826634 10.1017240924 
H 5.7604603442 12.1033167923 10.8991112121 
O 6.5413051694 12.6683877234 12.3086485038 
H 7.4816334534 12.3584757621 12.3087707693 
H 6.5751594209 13.6571748665 12.3124153165 
O 9.0883276257 11.8019664392 12.2876756670 
H 9.5604963208 12.1097534292 13.1003964935 
H 9.1060006753 10.8124256280 12.3135807656 
H 9.9246180466 12.3735995082 9.3150461781 
H 9.9178485190 12.3715010039 10.8962913887 
H 10.3780009714 14.4166836674 10.1113383018 
H 14.1925872236 14.4110423517 12.3039620834 
O 12.9391351154 11.7714386050 10.1304243216 
H 12.0144070703 12.1186014523 10.1050578371 
H 13.3872064661 12.1113475232 9.3172816523 
O 14.1803365747 12.7056387627 12.3437348241 
H 15.1082078397 12.3640477754 12.3186744582 
H 13.7385587232 12.3649945276 11.5273869738 
H 12.9192168038 10.0557398404 10.1037213224 
O 10.4032789075 12.7195369573 10.1085069880 
O 5.2718912793 4.5796025663 14.5244386813 
O 2.7577620849 0.9787086204 14.5374709666 
H 3.6854107232 1.3241504885 14.5144614010 
H 2.3112937734 1.3247350409 13.7259321285 
O 1.4652468602 4.6044615000 16.7042382896 
H 1.9366326079 4.9097260010 17.5203179246 
H 1.4848685621 3.6162878001 16.7284206390 
O 1.5118701816 1.8889300015 16.7494636068 
H 1.9548855653 1.5542997671 15.9306975934 
H 0.5810013229 1.5551729932 16.7201190884 
O 5.2872679809 1.8826056019 14.5425104026 
H 5.7508721948 4.9213527507 13.7299700218 
H 5.7608601358 4.9240938150 15.3132247103 
H 5.7593965311 1.5831509902 13.7266372610 
H 5.2992819106 2.8723242476 14.5220529764 
O 6.6046702314 0.9774614639 16.7225584062 
H 6.1182730145 1.3156096438 17.5151742620 
H 6.1198367755 1.3224196171 15.9326779379 
H 9.9507115888 1.3267281640 15.3252822723 
O 9.1054822549 4.6021082590 16.6972936760 
H 9.1264825320 3.6138838778 16.7268246336 
H 9.5744733536 4.9135234855 17.5106164884 
O 9.1498219177 1.9004964178 16.7183080962 
H 9.5942934120 1.5630137129 17.5347735841 
H 8.2219536204 1.5605866502 16.7437517053 
O 10.3848782113 0.9915323306 14.5018885054 
O 12.9493535684 4.6073261477 14.4769044574 
H 13.3898508536 4.9367252447 15.2991231204 
H 12.0175867528 4.9364772655 14.5090011088 
H 11.3124169222 1.3329170346 14.5192046159 
O 12.9344156202 1.9009221317 14.5281702723 
H 13.3992831884 1.5951038356 13.7104143369 
H 12.9429435499 2.8894175240 14.4999014596 
O 14.2270082749 0.9890650311 16.7120170757 
H 13.7504249959 1.3350233843 15.9177985333 
H 13.7404253199 1.3329624595 17.5022412460 
O 2.7311893008 5.5096600863 14.5080439987 
H 3.6595621794 5.1704313470 14.5323653398 
H 2.2890278775 5.1670790650 15.3237875117 
O 2.7787945788 8.2007397706 14.4958399091 
H 2.3085518556 8.5132284542 15.3085806593 
H 2.7534598153 7.2113291230 14.5251106186 
H 4.3842902794 8.7492402748 14.5238374309 
O 1.5155614742 9.0805375399 16.7095212483 
H 0.5774949239 8.7673864771 16.7062313880 
O 6.5459897877 5.4759395071 16.7121562866 
H 7.4856929756 5.1669037941 16.7165145490 
H 6.5812218993 6.4657972096 16.7212945953 
H 9.9289681380 5.1683263939 15.3077964607 
H 9.9200923273 5.1754788165 13.7251198853 
O 5.3121372611 9.0926827138 14.4959486696 
H 5.7604380742 8.7535679668 15.3084962049 
O 6.5767692236 8.1643962108 16.7075427015 
H 7.5027905306 8.5118758770 16.7256309376 
H 6.1352489188 8.5121928283 17.5209486949 
O 9.1081357984 9.0859714250 16.7439566337 
H 9.5794080201 8.7865844104 15.9282986946 
O 10.3647284833 8.2191611117 14.5118737369 
H 10.3897161686 7.2302050787 14.5114503797 
O 10.4093653684 5.5133585128 14.5156344450 
O 14.1857427555 5.5092623870 16.6941901119 
H 13.7366586968 5.1673256419 17.5071518061 
H 15.1123010659 5.1636539649 16.7245853332 
H 11.3074117623 8.5191469142 14.5017091675 
O 12.9087963059 9.1063384219 14.4996907151 
H 13.3943369031 8.7569809908 15.2878165513 
H 13.3898075283 8.7653736442 13.7048099340 
O 14.2158201592 8.1990392751 16.6821259947 
H 13.7513512398 8.5079384506 17.4988274844 
H 14.2003059368 7.2094510154 16.7098691626 
O 2.7228022062 12.6687019918 14.5228346591 
H 2.7562921540 13.6582849578 14.5177153692 
H 3.6629312580 12.3620670254 14.5129335176 
O 1.4881653217 11.7676543151 16.7448638587 
H 0.5617082099 12.1135764134 16.7266024160 
H 1.9290452542 12.1135565631 15.9296036207 
H 1.4790260908 10.0701071853 16.7127226818 
O 5.2796616619 11.7994029055 14.5252919797 
H 5.7517177661 12.1073196136 13.7117806992 
H 5.3008375313 10.8113914091 14.5022236421 
O 6.5809445510 12.6706995770 16.7365425621 
H 6.5693843034 13.6611044986 16.7111188083 
H 6.1100658366 12.3668314565 15.9220040147 
O 10.3519676074 12.6724657557 14.5080005012 
O 9.1174799929 11.7791658497 16.7380836310 
H 8.1888173721 12.1199048264 16.7138030989 
H 9.5595111800 12.1181935616 15.9206857767 
H 9.1148481133 10.0755051406 16.7217613143 
O 12.9052267473 11.8059572305 14.5403723847 
H 12.9265762920 10.8176102174 14.5119507797 
H 13.3792983495 12.1148778029 13.7286852947 
H 11.2919180661 12.3635323460 14.5120435686 
H 10.3856614097 13.6608812520 14.5112244235 
O 14.2054025610 12.6763884718 16.7455448306 
H 13.7336717059 12.3713713027 15.9312047091 
H 14.1951636477 13.6659718075 16.7159165852 

