&CONTROL
   calculation      = 'vc-relax'
   tstress          = .true.
   tprnfor          = .true.
   outdir           = './'
   pseudo_dir       = '/global/homes/p/ppiaggi/QuantumEspresso/pseudos'
/
&SYSTEM
   ecutwfc          = 150
   input_dft        = 'SCAN'
   ntyp             = 2
   nat              = 384
   ibrav            = 0
/
&ELECTRONS
   mixing_beta      = 0.5
   startingpot      = 'atomic'
   startingwfc      = 'atomic+random'
/
&IONS
/
&CELL
/

ATOMIC_SPECIES
O 15.999400004115753 O_ONCV_PBE_sr.upf
H 1.0079400002592869 H_ONCV_PBE_sr.upf

K_POINTS gamma

CELL_PARAMETERS angstrom
15.25484805628355 0.00000000000000 0.00000000000000
0.00000000000000 14.37669664570463 0.00000000000000
0.00000000000000 0.00000000000000 17.60224116781585

ATOMIC_POSITIONS angstrom
O 1.5259116042 1.8984774101 3.5033707337 
H 0.5845326453 1.5960706799 3.5055995683 
H 1.5014535594 2.8886523198 3.5052069942 
H 4.4020495556 4.9285890262 1.3075326241 
H 4.4038053483 1.6027087886 1.3041890651 
O 1.5236383174 4.5869865503 3.4954196066 
H 0.5932687316 4.9231349845 3.5181346465 
H 1.9633707266 4.9218867975 4.3163355957 
O 2.8117028726 1.0058028674 1.3156406763 
H 2.3181969303 1.3358501628 0.5240970909 
H 2.3225855888 1.3458733641 2.1057095914 
O 5.3353134024 4.5992716370 1.2809830047 
H 5.7729186237 4.9304387663 2.1033580801 
O 5.3482659940 1.8991510312 1.2984565982 
H 5.3269305670 2.8884315796 1.2969655247 
O 6.5642180308 0.9857470929 3.5274054538 
H 6.1266467150 1.3352771130 2.7127544803 
H 7.4907686560 1.3306408797 3.5166386943 
O 9.1055751926 1.8808164264 3.5088369237 
H 9.5736965931 1.5735638095 4.3233009998 
H 9.1333201724 2.8705809723 3.5288530260 
O 9.1191634328 4.5691047543 3.5194291145 
H 9.6020447338 4.9093248393 2.7270659205 
H 9.5999065136 4.9163302338 4.3103388847 
H 9.9235032903 1.3245126962 2.1216293353 
O 10.3659172759 0.9844542314 1.3046811830 
O 12.9594795072 4.5616701761 1.3337406931 
H 13.3974696622 4.9010884114 0.5146191977 
H 12.0308291699 4.9025373030 1.3083413311 
O 12.9214177513 1.8749097985 1.3440792754 
H 12.9376734683 2.8648236749 1.3179273070 
H 13.3890613405 1.5693152794 0.5280270359 
H 11.2945712291 1.3226196027 1.3301483236 
O 14.2196976811 1.0225430570 3.5434744734 
H 13.7483696972 1.3265825324 2.7277181665 
O 2.8033072528 5.5077158319 1.3098268868 
H 2.3123823953 5.1610069747 0.5233800046 
H 2.3241613776 5.1729179585 2.1072929466 
O 1.4808155837 9.0760545551 3.5295255488 
H 1.9563982204 8.7713483766 2.7181416451 
O 2.7559124818 8.2133889310 1.3077131774 
H 3.6963978577 8.5202318627 1.3047625427 
H 2.7864366283 7.2247246109 1.3044279793 
O 5.2998738089 9.1101118377 1.3058786319 
O 6.5764655883 5.5040425508 3.4990554761 
H 6.1290203147 5.1654904164 4.3137062156 
H 7.5027261513 5.1612038307 3.5269460304 
H 9.9547191031 5.1642747585 0.5050540662 
H 5.7767124457 8.7621731863 2.1001944384 
H 5.7808127193 8.7561333618 0.5177153185 
O 6.5896583192 8.2045340942 3.4882661559 
H 6.1192230135 8.5105701507 4.3025412527 
H 6.5792314553 7.2158109357 3.5163816095 
O 9.1490790599 9.0680868262 3.5032125806 
H 8.2067582572 8.7677512776 3.5051480873 
H 9.9387621501 8.5024805049 2.0893364489 
O 10.3887767177 8.1651396616 1.2765040759 
O 14.2456677186 5.5077911321 3.5080653738 
H 13.7595715657 5.1670388268 4.2990162777 
H 13.7626112179 5.1637726976 2.7167727915 
O 10.4214488804 5.4643826780 1.3232043919 
H 10.4119279745 6.4534470979 1.2996365043 
O 12.9160215821 9.0809410735 1.3008278440 
H 13.3931846522 8.7777718192 2.1125195381 
H 11.3138307348 8.5141097759 1.3088675645 
O 14.1891658209 8.2156089690 3.5205823798 
H 15.1304577452 8.5233437543 3.5142801465 
H 14.2198928871 7.2275697845 3.5144115843 
H 1.4938846595 10.0658116858 3.5038411140 
O 1.4666623974 11.7649109532 3.4943752916 
H 1.9514188703 12.1059939587 2.7029818736 
H 1.9538902803 12.1083089343 4.2840319106 
O 2.7496840569 12.6752968627 1.2990152634 
H 3.6896856946 12.3654380866 1.3041194626 
H 2.7841099462 13.6638392616 1.3112888925 
O 5.2984517270 11.7991927614 1.2855252699 
H 5.7679124219 12.1077681393 2.1000516452 
H 5.3186888251 10.8099435208 1.3103168198 
O 6.5916769566 12.6679015709 3.4870116058 
H 6.5785583166 13.6571553309 3.5065106586 
H 6.1207129380 12.3667432650 4.3031395953 
H 9.1259736366 10.0576155465 3.4977923327 
O 9.1392452873 11.7608925923 3.5155278648 
H 9.5792084302 12.1022272606 2.6977724433 
H 8.2114280911 12.1023424370 3.4943490327 
H 9.9300135899 12.3624608457 0.4983354841 
H 14.2062324977 14.4100424701 3.5168160848 
O 12.9398582148 11.7795411685 1.3382835358 
H 12.0100400760 12.1146347321 1.3027394697 
H 13.3870413722 12.1128774632 0.5224388937 
O 14.1916640602 12.7052341374 3.5371560040 
H 15.1188023817 12.3634726834 3.5045760050 
H 13.7432341929 12.3710773013 2.7215885222 
H 12.9330223519 10.0703026332 1.3232220731 
O 10.3997470788 12.6631392194 1.3154568796 
H 10.3763872507 13.6524403285 1.3025774672 
H 4.3910725763 4.9130072999 5.7227823187 
O 2.7425921766 0.9820503939 5.7256761122 
H 3.6721983459 1.3200131644 5.7125687102 
H 2.3079967339 1.3296813346 4.9081832492 
O 5.2712349772 1.9092402837 5.7197428960 
O 1.5025616962 4.6052198362 7.9088861703 
H 0.5606084322 4.9097610757 7.9065056811 
H 1.4752405292 3.6161699243 7.9151821692 
O 1.4520619606 1.9050114017 7.9138795555 
H 1.9350778367 1.5681447214 7.1198752819 
H 1.9439336199 1.5671692492 8.7043684961 
O 5.3334294076 4.6092869771 5.7212131472 
H 5.3062261452 3.6202845977 5.7264078763 
H 5.7555792777 1.5744717903 4.9258346729 
H 5.7616383426 1.5681890969 6.5098262387 
O 6.5376448775 1.0231815740 7.9044983032 
H 7.4796355615 1.3268356977 7.9156221558 
O 9.1433986720 4.6252485670 7.9263712268 
H 8.2012257184 4.9291225332 7.9245621021 
H 9.1147302939 3.6365341366 7.9298426170 
O 9.0797968817 1.9194403295 7.9309054511 
H 9.5565209458 1.5736366782 8.7252689599 
H 9.5676302152 1.5694527460 7.1443233707 
O 10.3581495655 1.0032461442 5.7475120150 
O 12.9502099795 4.5689895631 5.6800050133 
H 13.3952739273 4.9076008922 6.4962447381 
H 12.0238360122 4.9145703939 5.7095634732 
H 11.2995436007 1.3059090742 5.7386475854 
O 12.9218939136 1.8748066862 5.7405985005 
H 13.3923614514 1.5685445532 4.9251456169 
H 12.9341100429 2.8641828071 5.7104763652 
O 14.1738801860 0.9847540139 7.9415342263 
H 15.1049191246 1.3192371158 7.9187680121 
H 13.7373703816 1.3245181060 7.1201580356 
O 2.7875928767 5.4714447168 5.6964898440 
H 2.3060941303 5.1642742900 6.5042061703 
H 2.7655467571 6.4609645862 5.7212123528 
O 2.7832370803 8.1611495846 5.7206862681 
H 2.2949627358 8.5045623301 6.5094903095 
H 2.3018115025 8.5052453054 4.9291221103 
H 4.3924897719 8.7642591126 5.7206753276 
O 1.4980639175 9.0720129340 7.9039039890 
H 0.5580900586 8.7636462997 7.9034946606 
O 6.6042219126 5.5163374992 7.9128864758 
H 6.1122323738 5.1776546328 8.7024318138 
H 6.1226336843 5.1719121318 7.1199313383 
H 9.9444149765 5.1889922238 6.5213652106 
O 5.3175709385 9.1115738381 5.6879713199 
H 5.7666482148 8.7757899830 6.5031109260 
O 6.5553176713 8.2178726316 7.9126037578 
H 6.5748091762 7.2288462494 7.9125298069 
H 7.4998139346 8.5152472599 7.9163905441 
H 9.9414694154 8.5214098772 4.9162812894 
O 9.0853916342 9.1032955191 7.9196539459 
H 9.5807908183 8.7657746425 8.7079713678 
H 9.5730137291 8.7721324908 7.1257118189 
O 10.3858368835 8.1852872708 5.7330939977 
O 10.4188215806 5.4862016705 5.7060649406 
H 10.4069172435 6.4755300300 5.7219999847 
O 14.2103738489 5.4671368259 7.8799877075 
H 14.1906962395 6.4567103807 7.9026682285 
H 13.7331316812 5.1627803165 8.6922709315 
H 11.3121524964 8.5344708771 5.7106482975 
O 12.9084244855 9.0900094882 5.7318681359 
H 13.3864806639 8.7868606489 4.9210241813 
O 14.2140600085 8.1590209158 7.9039469808 
H 13.7287463456 8.5120134596 7.1177906951 
H 13.7365285331 8.5040265696 8.6992683782 
O 2.7305826741 12.6695835852 5.6921943698 
H 3.6733208366 12.3690569025 5.6962077726 
H 2.7571693407 13.6597963278 5.6935142158 
O 1.4592896465 11.7837272029 7.8899847530 
H 1.9489290393 12.1228070410 8.6791590977 
H 1.9426920815 12.1228656962 7.0959875056 
H 1.4687815733 10.0603324471 7.8947766996 
H 6.5655146284 14.4097972784 7.9116181682 
O 5.2941265762 11.8103169057 5.6859969512 
H 5.7547346504 12.1176676716 6.5060420679 
H 5.3069198921 10.8215693908 5.7129796468 
O 6.5504511971 12.7099516050 7.8944327572 
H 7.4775313709 12.3656377045 7.9155494726 
H 6.1094994940 12.3686473528 8.7123674032 
H 9.9378283401 12.3455960361 4.9179524967 
O 9.0923794475 11.8007071540 7.9375451213 
H 9.5686584157 12.0954544348 7.1212135931 
H 9.1032522682 10.8111677528 7.9209305636 
H 10.3854673800 14.3908618810 5.7401958689 
O 12.9065189559 11.7757960821 5.7166140196 
H 13.3924472656 12.1138979323 4.9239275924 
H 13.3934036532 12.1153493261 6.5084103310 
O 10.3710592743 12.6799725862 5.7409805011 
H 11.3032256705 12.3482305631 5.7187772613 
H 12.9260488541 10.0803385898 5.7126070721 
O 14.1694823689 12.6687260114 7.9121769659 
H 14.1898810274 13.6587968198 7.9160784443 
H 15.1141279842 12.3730917398 7.9038344543 
O 1.4979004264 1.9261091175 12.3249328689 
H 0.5727831548 1.5781950813 12.3044733860 
H 1.9420789904 1.5860373916 11.5093752497 
H 4.3722537826 4.9312012091 10.0899847409 
O 5.2624302947 1.9264077139 10.0958814112 
O 1.4831351535 4.6259907318 12.2848787154 
H 1.9493019739 4.9268788971 13.1041267818 
H 1.4917059598 3.6370157648 12.3078543166 
O 2.7266327400 1.0264104320 10.0976221235 
H 3.6683716819 1.3319839008 10.0970095945 
O 5.3140911108 4.6267484601 10.0953882357 
H 5.2866360020 3.6373744298 10.0946848442 
H 5.7488053008 1.5793724370 10.8847520645 
H 5.7450268455 1.5844460425 9.3023943495 
O 6.5375609652 1.0168867420 12.2840720037 
H 7.4781003612 1.3241729972 12.2903526112 
O 9.0785556248 1.9227547703 12.3047354786 
H 9.5660471349 1.5717151671 11.5176076310 
H 9.5610203558 1.5830976939 13.0985620064 
O 9.1312891018 4.6215655112 12.3093087734 
H 8.1899807421 4.9253154737 12.3070493982 
H 9.1052966387 3.6320952310 12.3048647886 
O 10.3508312165 1.0058466629 10.1299131032 
O 12.9371691595 4.5791061727 10.0802403977 
H 12.0105868281 4.9246374256 10.1070328920 
H 13.3876490540 4.9304006996 10.8876804320 
O 12.9076565842 1.8726202792 10.1308264405 
H 13.3777459191 1.5708454912 9.3130220757 
H 12.9209249212 2.8610011747 10.1104937607 
H 11.2929935817 1.3087127314 10.1192621246 
O 14.2282942623 0.9760033353 12.3121983921 
H 13.7402481622 1.3128106327 11.5210364321 
H 13.7425331749 1.3209677639 13.1022829686 
O 2.7781253290 5.5225640515 10.0937290311 
H 2.2905003430 5.1746611229 9.3058293108 
H 2.2990580440 5.1812717462 10.8889698322 
O 1.4772039641 9.1149995516 12.3156875031 
H 1.9522726484 8.7687750047 13.1100487769 
H 1.9651681423 8.7735018821 11.5271014414 
H 4.3825223894 8.7728801122 10.0976592881 
O 2.7873698363 8.2126190049 10.1261954816 
H 2.3062162388 8.5172277221 9.3184528717 
H 2.7679703576 7.2232403180 10.1002809403 
O 6.5728547698 5.4927791388 12.3264785117 
H 6.5593950926 6.4817049773 12.3050014966 
H 6.1032129227 5.1910994917 11.5099697138 
H 9.9265131140 5.1828276933 9.3281636071 
H 9.9275335576 5.1832452130 10.9104825779 
O 5.3087886661 9.1216809006 10.1248152720 
H 5.7600282135 8.7814620314 9.3132302743 
O 6.5537378238 8.1934172214 12.3288869816 
H 7.4829552295 8.5300151789 12.2968368338 
H 6.1081919484 8.5331051903 11.5134284657 
O 9.0952738489 9.1165352650 12.2940095293 
H 9.5848648661 8.7748646151 13.0822836921 
H 9.5799466429 8.7798607404 11.4998113336 
O 10.3698557888 8.2182875117 10.1000825374 
H 10.3944332181 7.2287427517 10.1086860789 
O 14.1778906559 5.5020847680 12.2842666363 
H 14.2053457352 6.4913980449 12.2885739916 
H 15.1188661338 5.1988055863 12.2935125375 
O 10.4144524017 5.5227436390 10.1193641901 
O 12.9193613149 9.0738071598 10.0807987505 
H 13.3939163164 8.7769625774 10.8975330738 
H 11.3131218884 8.5196933605 10.1016400425 
O 14.1941103625 8.1976989933 12.2751254712 
H 15.1242787030 8.5328160094 12.3048111637 
H 13.7513780678 8.5302474566 13.0954110506 
H 2.7580483396 14.4133396186 10.0988164836 
O 1.5275411022 11.8173121261 12.3015571022 
H 0.5840266003 12.1175491466 12.3050269703 
H 1.5036923214 10.8288715820 12.3073000498 
O 2.7559543254 12.7122563930 10.0745595978 
H 3.6856574788 12.3748412642 10.1026845432 
H 2.3133982128 12.3721082417 10.8913912640 
H 6.5703205735 14.4045287479 12.2899008879 
O 5.2922677520 11.8156448026 10.0936317899 
H 5.7646285082 12.1122994083 10.9114176545 
H 5.3006502134 10.8255113537 10.1122536694 
O 6.5682993687 12.6949805303 12.2912482607 
H 7.4988584753 12.3572884652 12.3105402121 
H 6.1311624086 12.3533698271 13.1103097815 
O 9.1060522762 11.8071785485 12.3273631158 
H 9.1185881374 10.8174122499 12.3060139181 
H 9.5762093752 12.1068843378 11.5094669361 
H 9.9224203036 12.3524038175 9.3113557001 
H 10.3776992961 14.3928788297 10.1208207405 
O 12.9100634734 11.7633943599 10.0964863398 
H 13.3971824514 12.1009964761 10.8875642044 
H 13.3944940957 12.1091526751 9.3049980798 
O 14.2312773534 12.6624714049 12.2835360552 
H 13.7555537763 12.3562804262 13.0950498469 
H 14.2097490946 13.6517629452 12.3083584212 
H 12.9348536011 10.0638119797 10.0963134155 
O 10.3676666940 12.6904220136 10.1286584876 
H 11.2964209097 12.3522618200 10.0999657346 
H 4.3863626111 4.9142231477 14.5017248990 
O 2.7484406166 0.9986251226 14.5330157534 
H 2.3017990625 1.3333712394 13.7165537632 
H 3.6789301628 1.3351889729 14.4993591658 
O 1.5242537911 4.6027915609 16.7337643014 
H 0.5840257861 4.9075905978 16.7231218992 
H 1.4933200982 3.6134342696 16.7297797159 
O 1.5025031593 1.9092274820 16.7417228829 
H 1.9432436584 1.5745814270 15.9220027150 
H 0.5730777643 1.5709880440 16.7179960676 
O 5.2831041224 1.8803127867 14.5210404511 
O 5.3137521761 4.5715242421 14.5178739503 
H 5.7536909671 4.9226592931 13.7042644368 
H 5.7492496051 1.5768362474 13.7033042791 
H 5.2995285227 2.8699557027 14.4965994395 
O 6.5941091149 0.9821713804 16.7096652042 
H 6.1080553998 1.3232074906 15.9193258694 
H 6.1164918293 1.3323385000 17.5031547115 
H 9.9329635739 1.3193079632 15.2996939160 
O 9.1638698493 4.6031913955 16.6869097747 
H 9.1360090513 3.6147742212 16.6855109495 
H 8.2205303164 4.9033344858 16.6894616542 
O 9.1327570405 1.8980552046 16.6821915181 
H 9.5678691779 1.5662090030 17.5053547284 
H 8.2012994831 1.5655800319 16.7058779350 
O 12.9430691053 4.5889394976 14.5161962374 
H 12.0147610612 4.9319526917 14.4930036075 
H 13.3849377071 4.9345484838 13.7028011492 
O 10.4055138635 1.0229718713 14.4824232799 
O 12.9616830805 1.8905425661 14.5048602343 
H 12.9315406217 2.8792465660 14.4987619436 
H 12.0204566217 1.5851027765 14.5032234512 
O 14.2149389417 1.0186339774 16.7347049176 
H 13.7496389865 1.3277964540 15.9185514047 
O 2.7693071183 5.4761385110 14.4954859851 
H 2.3069636135 5.1666955590 15.3128595030 
H 2.7528919633 6.4655724349 14.5251194312 
O 2.7414396363 8.1652646864 14.5055520487 
H 2.2965311564 8.5128063405 15.3175467994 
H 3.6705582928 8.5034097292 14.5310652974 
O 1.4611025926 9.0801908060 16.6980975651 
H 1.9424706213 8.7765555769 17.5068213619 
O 5.2932134713 9.0616040345 14.5387156551 
O 6.6218930771 5.4847907221 16.6947328804 
H 6.1282936228 5.1504241281 15.9054873607 
H 6.1324605242 5.1573897172 17.4899623440 
H 9.9382480946 5.1755888502 15.2872731610 
H 9.9254413600 5.1819529444 13.7049497580 
H 5.7597404805 8.7682276974 13.7167805969 
O 6.6006483367 8.1837840971 16.7295478104 
H 6.5925947520 7.1948383627 16.7031438913 
H 6.1246656473 8.4865585266 15.9168016598 
H 9.9423637038 8.5166889964 15.2901580940 
O 9.1374265338 9.1061036285 16.6767031114 
H 9.5842509837 8.7636920734 17.4899006895 
H 8.2128292202 8.7558606759 16.7026750849 
O 10.4175058628 5.5217182852 14.4932165667 
O 14.2134678964 5.4704361217 16.7273307969 
H 13.7421989517 5.1711498113 15.9104861203 
H 14.1973678979 6.4592555597 16.7078404210 
O 10.4140162845 8.2157369207 14.4743096178 
H 10.3982464243 7.2259971640 14.4961590963 
O 12.9482774114 9.1053387425 14.4796809679 
H 13.3869658365 8.7684819543 15.2996192912 
H 12.0181987158 8.7665513181 14.5029961401 
O 14.1853070939 8.1789548412 16.6946412597 
H 15.1125354502 8.5241886690 16.7232991598 
H 13.7381679411 8.5186445251 17.5080135825 
H 4.4015469157 12.1136725506 14.5175209639 
O 2.7827608246 12.6825509966 14.5298019831 
H 2.3133028518 12.3824359251 13.7124521678 
H 2.7655613814 13.6721308635 14.5124286073 
O 1.4743515782 11.7733182699 16.7134325381 
H 1.9559471594 12.1144439122 15.9201733556 
H 1.9623250828 12.1190846855 17.5016730552 
H 1.4843287739 10.0697909073 16.7200719910 
O 5.3263208264 11.7655803129 14.4995340514 
H 5.7704927191 12.1121118372 15.3131080659 
H 5.3041030023 10.0503212386 14.5236654779 
O 6.5920862638 12.6723907026 16.6873139121 
H 6.1234873597 12.3635908206 17.5022198619 
H 6.5739157623 13.6623046906 16.7142560239 
H 9.9403789804 12.3664910552 13.7124420561 
H 9.9355495934 12.3616647798 15.2934192372 
O 9.1439811319 11.8011037325 16.6856782031 
H 8.2034602163 12.1092248338 16.6936866097 
H 9.1137294589 10.8119010915 16.6916291650 
H 10.3955948678 14.4101073994 14.5011970390 
H 14.2014640037 14.4062912516 16.7048623233 
O 12.9619046123 11.8024522290 14.5018866383 
H 12.9324527177 10.8133387942 14.5024422414 
H 12.0208657555 12.1085193063 14.5049169888 
O 10.4249137615 12.7063607487 14.5049705193 
O 14.1940531544 12.7006471884 16.7289027997 
H 13.7510820364 12.3603014273 15.9126512656 
H 15.1220500296 12.3596957929 16.7047557015 

