&CONTROL
   calculation      = 'vc-relax'
   tstress          = .true.
   tprnfor          = .true.
   outdir           = './'
   pseudo_dir       = '/global/homes/p/ppiaggi/QuantumEspresso/pseudos'
/
&SYSTEM
   ecutwfc          = 150
   input_dft        = 'SCAN'
   ntyp             = 2
   nat              = 384
   ibrav            = 0
/
&ELECTRONS
   mixing_beta      = 0.5
   startingpot      = 'atomic'
   startingwfc      = 'atomic+random'
/
&IONS
/
&CELL
/

ATOMIC_SPECIES
O 15.999400004115753 O_ONCV_PBE_sr.upf
H 1.0079400002592869 H_ONCV_PBE_sr.upf

K_POINTS gamma

CELL_PARAMETERS angstrom
15.25128067299663 0.00000000000000 0.00000000000000
0.00000000000000 14.37520828909750 0.00000000000000
0.00000000000000 0.00000000000000 17.62116751349564

ATOMIC_POSITIONS angstrom
O 1.4667708401 1.8868726583 3.5182045511 
H 1.9404534167 1.5812191909 2.7057528356 
H 1.4856634491 2.8757007707 3.4979695311 
H 4.3882912791 4.9195414701 1.2906902440 
O 1.5065890826 4.5849296344 3.4872934560 
H 0.5817273819 4.9343096689 3.5078304361 
H 1.9520873908 4.9290140960 4.3012221663 
O 2.7348678987 1.0052547740 1.3021966735 
H 3.6760361235 1.3085282771 1.2974111300 
O 5.2959598579 1.8736259427 1.3126120194 
O 5.3152393938 4.5759131427 1.2650999209 
H 5.7614650462 4.9233219540 2.0780752209 
H 5.3068934799 2.8625624224 1.2912540510 
H 5.7664936261 1.5742740687 0.4955510296 
O 6.6064471468 0.9780483562 3.4915953097 
H 6.1169615914 1.3160263130 4.2826121059 
H 6.1208950411 1.3165157054 2.6985737170 
O 9.1469843740 1.8761410859 3.5069250810 
H 9.1170930945 2.8649358837 3.5039888665 
H 8.2053233867 1.5720916182 3.5029741222 
O 9.1327282167 4.5785441594 3.5185924901 
H 8.2054096706 4.9192430423 3.4868366682 
H 9.5793563487 4.9186680329 2.7047830912 
H 9.9327474385 1.3106130717 2.0874401727 
O 12.9174943184 4.6297865210 1.3173536251 
H 13.3864028394 4.9371163706 0.5022330029 
H 12.9333611118 3.6399425746 1.2882577177 
O 12.9413134032 1.9416533672 1.3162896867 
H 13.3850293678 1.5914601769 0.5038978947 
H 12.0155830370 1.5953084574 1.2922986040 
O 10.4026653735 1.0150448492 1.2695668755 
O 14.1878495315 0.9930593627 3.5272522024 
H 13.7429052083 1.3356550320 2.7142839046 
H 15.1166110790 1.3339658399 3.4994076635 
O 2.7762129418 5.4777682081 1.2795101670 
H 2.3093067226 5.1752888739 2.0973880702 
H 2.7587244172 6.4671859607 1.3016264177 
O 1.5043241704 9.0946868806 3.5356125798 
H 1.9375569892 8.7619919462 2.7115112262 
H 0.5721415667 8.7651906760 3.5127098023 
O 2.7369074245 8.1777645863 1.3106489630 
H 2.2953567862 8.5233249194 0.4959625979 
H 3.6660771762 8.5163402373 1.2894577070 
O 5.2857083786 9.0592999532 1.2708423769 
O 6.5793691335 5.4817537176 3.4533886633 
H 6.1136635995 5.1751966564 4.2704795583 
H 6.5642002762 6.4711166851 3.4812910839 
H 9.9366802312 5.1787340287 0.5029291909 
H 5.7567274213 8.7602757890 2.0879470075 
O 6.5572397555 8.1737443738 3.4717017334 
H 7.4871847864 8.5083983809 3.4971929425 
H 6.1183609062 8.5197100932 4.2891483786 
O 9.1147642207 9.0593031587 3.5299528756 
H 9.5843933283 8.7568445139 2.7130118755 
H 9.9368537877 8.5059687129 0.5095996902 
O 14.2157789918 5.4876013721 3.5264641769 
H 13.7436854338 5.1869195445 2.7109584904 
H 14.1991141474 6.4767159031 3.5089530538 
O 10.3831955141 5.5160736909 1.3179296482 
H 11.3121290531 5.1751388339 1.2876134098 
O 12.9386875002 9.0990012614 1.3365257652 
H 13.3807774668 8.7641476545 0.5179618428 
H 12.0082707617 8.7625623487 1.3104088490 
O 10.4052517718 8.2063211263 1.3283657332 
H 10.3971606227 7.2166501128 1.3033722054 
O 14.2187920197 8.1853293700 3.5196703519 
H 13.7321432834 8.5175054448 2.7245271425 
H 13.7292598058 8.5252249428 4.3078580614 
H 2.7636587134 14.3916575241 1.3026143227 
O 1.5351591040 11.7911745007 3.5116427293 
H 1.5021694184 10.8023572954 3.5161644509 
H 0.5951996902 12.0987580081 3.5116243289 
O 2.7603811606 12.6834080763 1.2806446130 
H 3.6892153229 12.3448861664 1.2973578970 
H 2.3242940476 12.3411814912 2.0997143758 
O 5.2979021613 11.7545472245 1.2908474220 
H 5.7813621140 12.1050971870 0.5016482670 
H 5.7823248730 12.0898677667 2.0843941117 
O 6.6127105916 12.6572739453 3.4797999948 
H 6.5936618802 13.6467599061 3.4987289021 
H 6.1384311954 12.3575745396 4.2952572844 
H 5.3083140402 10.0485816278 1.2851814803 
H 9.1275075013 10.0478790467 3.5060185277 
O 9.1470072850 11.7607816277 3.4738478558 
H 8.2190051698 12.1030383083 3.4990847493 
H 9.5896080823 12.1044018062 4.2890461053 
H 9.9500567023 12.3527792443 2.0830715025 
H 10.3981977651 14.4012780002 1.2865679012 
O 12.9343037215 11.7956286283 1.2848077045 
H 13.4043433682 12.1007693834 2.1001250340 
H 12.9392946828 10.8062381923 1.3167756531 
O 14.2306606310 12.6659626391 3.4903015773 
H 14.2087662272 13.6543020327 3.5122515474 
H 13.7525302553 12.3602012747 4.3011121291 
O 10.3939104748 12.6907025107 1.2658918311 
H 11.3232516605 12.3530967895 1.2974375020 
O 2.7729130416 0.9925939177 5.7021887033 
H 2.2847255746 1.3297417979 4.9107577766 
H 2.2886802665 1.3317814478 6.4945270029 
H 4.3864238238 1.5717627012 5.6973576990 
O 1.4713881465 4.6218782581 7.9308178758 
H 1.9435089041 4.9212398570 7.1151117568 
H 1.4814334176 3.6325792542 7.9095810231 
O 1.4916927456 1.9243192038 7.8905883863 
H 0.5637529510 1.5829266866 7.9165881254 
H 1.9380818353 1.5782961234 8.7028908932 
O 5.2982794413 4.6081139280 5.6628322628 
H 5.7664657724 4.9083457890 6.4810129343 
H 5.3095605190 3.6197647489 5.6854101788 
O 5.3168433789 1.9033720663 5.6658644922 
H 5.7592140318 1.5694583373 6.4856577028 
O 6.5588561993 0.9867117284 7.8739152776 
H 6.1173402862 1.3323578362 8.6891089829 
H 7.4879761433 1.3262589478 7.8999424856 
H 9.9269274691 1.3214745168 6.4919178437 
H 9.9270634047 1.3244124140 4.9088687385 
O 9.0966800309 4.5779071926 7.9115498574 
H 9.5895304829 4.9121325373 7.1217822568 
H 9.5796439689 4.9186426758 8.7047845362 
O 9.0954454845 1.8805364780 7.8866155589 
H 9.5671505352 1.5810528919 8.7028773959 
H 9.1102892412 2.8699757269 7.9096348845 
O 12.9363999799 4.6029002487 5.7380954555 
H 13.4010190613 4.9076899041 4.9198226770 
H 12.9492336907 3.6135537005 5.7139975765 
O 10.4121265629 0.9810812668 5.7007797184 
O 12.9506529569 1.9046567135 5.7351053418 
H 13.3942650894 1.5707043909 4.9157793728 
H 12.0208190915 1.5693186966 5.7037455067 
O 14.2036748662 1.0240313091 7.9424198935 
H 13.7386608009 1.3234100219 7.1212440383 
O 2.7400053016 5.4814252381 5.7075725260 
H 2.7714655623 6.4707099723 5.7093885466 
H 3.6798772063 5.1738038735 5.6993717629 
O 2.7567793212 8.1726147255 5.7341755219 
H 2.3109412343 8.5102739865 4.9181563507 
H 3.6832733175 8.5163993913 5.7043562866 
O 1.4760412658 9.0667728138 7.9345874408 
H 1.9502688369 8.7596027764 7.1226327016 
O 5.3057855386 9.0803789704 5.6672910456 
O 6.5611777769 5.4981693086 7.8693319145 
H 7.4910475070 5.1626281004 7.9024288909 
H 6.1188424416 5.1685829201 8.6909047621 
H 9.9501801909 5.1584172254 4.9160687102 
H 5.7700153234 8.7745651046 6.4849525684 
O 6.5842460510 8.2028542784 7.8798819422 
H 6.5738822948 7.2139962849 7.8971480184 
H 6.1175680294 8.4994893496 8.7003650098 
H 9.9239399476 8.4897165206 4.9267581163 
O 9.1313961991 9.1081560837 7.9337987925 
H 8.2039028106 8.7672016409 7.9151084635 
H 9.5707479292 8.7548920891 7.1201856141 
O 10.3915872793 5.4918380067 5.7352279745 
H 11.3213671291 5.1557417616 5.7088453111 
O 14.1870882323 5.5214737340 7.9355298361 
H 13.7489070172 5.1745194485 7.1194859592 
H 15.1171399293 5.1841193102 7.9123638447 
O 10.3860326722 8.1901156281 5.7486677518 
H 10.3854349215 7.2011870293 5.7218992564 
O 12.9246644465 9.1223248544 5.7058575881 
H 11.9998866480 8.7740113128 5.7288950354 
H 13.3687667338 8.7777262717 6.5192845735 
O 14.1667165051 8.2102685333 7.9237822771 
H 14.1922558930 7.2205612954 7.9203361933 
H 15.1087578065 8.5108241734 7.9181548088 
H 4.4044924266 12.1195598313 5.6985624598 
O 2.7971415983 12.6754478300 5.7207965842 
H 2.7681074485 13.6644097319 5.6987446821 
H 2.3221704610 12.3649582642 4.9101981494 
O 1.4788600160 11.7690175339 7.9067267268 
H 1.9613847131 12.1138294221 8.6983245903 
H 1.9667552440 12.1077738003 7.1165634285 
H 1.4989990374 10.0549884210 7.9091942687 
O 5.3303848128 11.7712152412 5.6767954010 
H 5.7731715432 12.1164044908 6.4922879853 
H 5.3183636463 10.0699497903 5.6948723294 
O 6.5462067055 12.6737978506 7.8987857884 
H 7.4873989204 12.3710532591 7.9046428509 
H 6.5727715076 13.6636861915 7.8989915764 
H 9.9278705019 12.3645456095 6.4904193018 
O 9.1047678538 11.8049591418 7.8892030794 
H 9.1234254976 10.8161287735 7.9138577139 
H 9.5766959831 12.1126394180 8.7017137192 
H 14.1982159719 14.4105140131 7.9187617450 
O 12.9561869083 11.8080033085 5.7005176394 
H 12.0166944103 12.1173851172 5.7024661684 
H 12.9210531859 10.8185613872 5.7125524557 
O 10.4000623061 12.6693963980 5.6769120307 
H 10.3816109384 13.6593724126 5.7003444168 
O 14.1954415687 12.6997485571 7.9333514563 
H 13.7511803239 12.3631320965 7.1163143454 
H 15.1232405955 12.3589421358 7.9041551285 
O 1.4930551032 1.9277694007 12.3314998617 
H 1.9317497323 1.5842983733 11.5146991448 
H 0.5637460661 1.5864113362 12.3131775120 
H 4.3944703112 4.9324772411 10.1214049223 
O 1.5188848579 4.6207325677 12.3175142356 
H 0.5762106005 4.9235139142 12.3150335488 
H 1.4886686629 3.6311919284 12.3133637501 
O 2.7315148034 1.0226883592 10.1013024072 
H 3.6711854999 1.3271749321 10.1011012509 
O 5.3000494631 1.8950892977 10.0715292616 
O 5.3231501124 4.5955804949 10.0863087154 
H 5.7733659871 4.9301786262 10.9010657800 
H 5.7695425007 1.5917766448 10.8869017931 
H 5.3154842612 2.8840253106 10.0978605823 
O 6.5928397291 1.0277883815 12.2908134087 
H 6.1179182698 1.3363040957 13.1026071970 
O 9.1264169487 1.9281453854 12.2924886764 
H 9.5722618309 1.5798794946 13.1033554874 
H 8.1993959440 1.5830213848 12.3171565938 
O 9.1133977080 4.6184512166 12.2819649908 
H 9.5794892635 4.9232363454 13.0987089038 
H 9.1204130303 3.6290482517 12.3131721749 
H 9.9307077413 1.3390592782 10.9036508171 
O 10.3758438080 0.9971787926 10.0889810729 
O 12.9467339653 4.5921375020 10.1318441650 
H 13.3889609761 4.9333513531 9.3147385477 
H 12.0179045382 4.9319263650 10.1078301711 
O 12.9248973093 1.9008696528 10.1450609209 
H 13.3904422743 1.5941725639 9.3276731321 
H 12.9368093823 2.8900724658 10.1172142481 
H 11.3024994548 1.3409931842 10.1171730420 
O 14.2127331552 1.0286760931 12.3429595976 
H 13.7458070095 1.3389907549 11.5272651196 
O 2.7850108355 5.5174018610 10.1242478485 
H 2.2999360834 5.1790166531 9.3325639197 
H 2.2991589167 5.1756396342 10.9160217913 
O 1.5137373204 9.1095653827 12.3402042498 
H 1.9573718728 8.7652075620 11.5256750396 
H 0.5859614153 8.7660600163 12.3155659180 
H 4.3978206862 8.7514963225 10.1157814501 
O 2.7765152750 8.2038637659 10.1418062408 
H 2.7603630440 7.2135867037 10.1219504024 
H 2.3028115727 8.5050949774 9.3273693479 
O 6.5781241489 5.5160592548 12.2840154826 
H 7.5071761696 5.1760915646 12.3091847131 
H 6.1349654350 5.1776886284 13.1009877095 
H 9.9356589385 5.1814695626 10.9020005641 
O 5.3263265734 9.0913060994 10.0901642704 
H 5.7689192088 8.7497170911 10.9068074132 
O 6.5882708695 8.2047965254 12.2906176733 
H 6.1174000161 8.5054003392 13.1063238099 
H 6.5789920629 7.2147704114 12.3123587743 
O 9.1398933604 9.0819463396 12.3028961968 
H 8.1989247467 8.7769032137 12.3068654470 
H 9.9361919151 8.5187977201 9.3243981559 
H 9.9276647418 8.5213849906 10.9067928908 
O 14.2327497552 5.5084579712 12.3116917831 
H 13.7415338591 5.1666321585 13.0997341252 
H 13.7479659590 5.1745591485 11.5161062151 
O 10.4068602629 5.4866197406 10.0869961153 
H 10.3947849322 6.4755530283 10.1130223013 
O 12.9497225472 9.1068605804 10.1474572423 
H 13.3915862352 8.7649399018 9.3297985605 
H 12.0208009197 8.7668048078 10.1218574157 
O 10.4204413283 8.1823953827 10.1184214306 
O 14.2303563372 8.2092475361 12.3345979267 
H 13.7549715473 8.5132811903 11.5206380111 
H 14.2157570899 7.2203118819 12.3103286720 
H 2.7594406387 14.4082122257 10.1094753482 
O 1.4889657717 11.8115245740 12.2931702078 
H 1.9589648288 12.1127404707 13.1092907830 
H 1.5010007634 10.8226660211 12.3150994606 
O 2.7518666395 12.7093789621 10.0908733939 
H 3.6792352691 12.3665015428 10.1114300799 
H 2.3125811148 12.3671349898 10.9086263912 
H 6.5664428446 14.4145453095 12.3149035349 
O 5.2929507574 11.7952322040 10.1244786194 
H 5.7629742849 12.1001470474 9.3095292200 
H 5.3106283492 10.8065752262 10.1039330325 
O 6.5400124525 12.6997729477 12.3365052901 
H 7.4711198801 12.3677862849 12.3095265362 
H 6.1022441934 12.3589765008 11.5180160380 
H 9.1103690022 10.0706708386 12.3019325137 
O 9.0780320695 11.7855036968 12.3016600218 
H 9.5635372064 12.1191033640 13.0963018248 
H 9.5679834372 12.1247513170 11.5120081518 
O 10.3676216491 12.6769671553 10.1129626586 
H 14.2027423589 14.4139318458 12.3095747344 
O 12.9286977538 11.8054600228 10.1440728879 
H 13.3951988348 12.1061529236 9.3257446486 
H 12.9400756682 10.8161428387 10.1202277760 
O 14.1944185400 12.7200901900 12.3311395285 
H 15.1221067749 12.3791162495 12.3109572027 
H 13.7530996552 12.3712338937 11.5170791879 
H 11.3080243462 12.3708245517 10.1194668731 
H 10.3963343037 13.6659368637 10.1110160441 
H 4.3966499088 4.9280008143 14.5074570595 
O 2.7880130177 1.0239547003 14.5216002213 
H 2.2988436443 1.3559047820 15.3140955187 
H 2.2973799523 1.3558721990 13.7299957331 
H 4.3868519219 1.6035337868 14.5115082836 
O 1.4866166238 4.6134618887 16.6877537448 
H 1.4888947287 3.6243518530 16.7188625824 
H 1.9519829144 4.9160618143 17.5057803379 
O 1.4880094264 1.9220652911 16.7139621323 
H 1.9351695078 1.5714828643 17.5234589653 
H 0.5621039689 1.5758706362 16.7346482836 
O 5.3256211015 4.5890499756 14.4834298904 
H 5.7650561649 4.9200598011 15.3067461018 
O 5.3317334385 1.8977301808 14.5056625508 
H 5.3120630308 2.8875664235 14.5055321756 
O 6.5638405417 0.9893847400 16.7293009480 
H 7.4919239681 1.3299842985 16.7031918037 
H 6.1208566328 1.3314655100 15.9137520251 
O 9.1396668976 4.6165044308 16.7090194333 
H 9.1211286935 3.6275668152 16.7081825433 
H 8.1953608420 4.9127610269 16.7102326993 
O 9.0997598089 1.9186281295 16.7027960492 
H 9.5802506646 1.5745748134 17.4953998452 
H 9.5829701057 1.5715093889 15.9120988859 
O 10.3616503537 1.0074525897 14.5132291533 
O 12.9410266208 4.5704244310 14.4856182799 
H 13.3863175450 4.9181468527 15.2964169318 
H 12.0146036419 4.9170937243 14.5105178508 
H 11.3050195142 1.3059973048 14.5161456472 
O 12.9176768014 1.8724710161 14.5418800925 
H 13.3878972083 1.5691481106 13.7253645088 
H 12.9262660534 2.8610436323 14.5155062776 
O 14.1984115541 1.0147623009 16.7469647305 
H 13.7319054799 1.3155682963 15.9272359699 
O 2.7919270000 5.5187345522 14.5053090661 
H 2.3041154267 5.1763506758 13.7151551341 
H 2.3112569358 5.1735021377 15.2977625608 
O 2.7772128544 8.2090340507 14.5395941458 
H 2.3086219272 8.5162205104 13.7237699140 
H 2.7623694895 7.2194643851 14.5122023363 
H 4.3852925651 8.7591916188 14.5242854760 
O 1.4729704889 9.0846254644 16.7356840752 
H 1.9446412133 8.7769753848 15.9218722743 
O 6.5853526944 5.4596508597 16.6874922687 
H 6.5700448906 6.4494582606 16.7105958581 
H 6.1107740721 5.1565122030 17.5021383350 
H 9.9351233145 5.1816618029 15.3080684980 
O 5.3275004148 9.0637017977 14.5287110653 
O 6.6017966692 8.1491465864 16.7122164307 
H 6.1188623956 8.4895749614 17.5052383066 
H 6.1139284129 8.4964650820 15.9240168739 
H 9.9439919472 8.5234213396 13.7191762805 
O 9.1376707581 9.0846683040 16.7440597628 
H 9.5847348472 8.7535684779 15.9266268697 
H 8.2106600125 8.7423375067 16.7138651028 
O 10.3912564365 8.1826066454 14.5316264743 
O 10.4117705212 5.4838432718 14.4954080483 
H 10.4016166683 6.4727024511 14.5180916617 
O 14.1782699933 5.4917341388 16.7090791509 
H 14.2064429407 6.4810224483 16.7139721901 
H 15.1184755259 5.1862513197 16.7105514996 
H 11.3167897052 8.5308943847 14.5084538133 
O 12.9236027297 9.0870812062 14.5359604755 
H 13.4000939792 8.7814126720 13.7250184297 
O 14.1875788524 8.1854062977 16.7464389725 
H 13.7459666548 8.5264742973 15.9302381243 
H 15.1153664876 8.5285079571 16.7198527038 
O 5.2683300334 11.7695849879 14.5359152622 
O 2.7415928595 12.6802156119 14.5252038407 
H 3.6833776414 12.3737071774 14.5325135020 
H 2.7708809409 13.6676389329 14.5242493917 
O 1.4662669483 11.7790152783 16.7100467022 
H 1.9554405843 12.1219704751 15.9208378182 
H 1.9535949506 12.1078547896 17.5050233455 
H 1.4879800663 10.0741830666 16.7061635354 
H 5.7477349797 12.1073696788 13.7401403485 
H 5.7607076907 12.1109137494 15.3233015145 
H 5.2976839055 10.0521099518 14.5341131338 
O 6.5554604588 12.6709989246 16.7218902427 
H 6.5806337103 13.6604541548 16.7175672912 
H 7.4972793528 12.3698361187 16.7174330869 
H 9.9327817870 12.3520490523 15.3110031322 
O 9.1196258557 11.7992194638 16.6956964146 
H 9.5946839648 12.1009411299 17.5104654694 
H 9.1272614929 10.8112687659 16.7215111301 
H 10.3831691721 14.3926402739 14.5110867592 
H 14.1835002293 14.4011858244 16.7260950080 
O 12.9007406137 11.7828976158 14.5035000502 
H 13.3912689443 12.1255868561 13.7158337988 
H 13.3846969148 12.1136389372 15.3006658429 
O 10.3649614823 12.6921977121 14.4883386065 
H 11.2970704588 12.3610978096 14.5057313345 
H 12.9364036628 10.0765108976 14.5072707462 
O 14.1769039203 12.6881639595 16.6947666542 
H 13.7431172831 12.3458539723 17.5152378757 
H 15.1086706431 12.3577136153 16.7141181325 

