&CONTROL
   calculation      = 'vc-relax'
   tstress          = .true.
   tprnfor          = .true.
   outdir           = './'
   pseudo_dir       = '/global/homes/p/ppiaggi/QuantumEspresso/pseudos'
/
&SYSTEM
   ecutwfc          = 150
   input_dft        = 'SCAN'
   ntyp             = 2
   nat              = 384
   ibrav            = 0
/
&ELECTRONS
   mixing_beta      = 0.5
   startingpot      = 'atomic'
   startingwfc      = 'atomic+random'
/
&IONS
/
&CELL
/

ATOMIC_SPECIES
O 15.999400004115753 O_ONCV_PBE_sr.upf
H 1.0079400002592869 H_ONCV_PBE_sr.upf

K_POINTS gamma

CELL_PARAMETERS angstrom
15.25254842699713 0.00000000000000 0.00000000000000
0.00000000000000 14.37865020505918 0.00000000000000
0.00000000000000 0.00000000000000 17.61499217154562

ATOMIC_POSITIONS angstrom
O 1.4931287346 1.9189928185 3.4726284091 
H 0.5650315513 1.5775795910 3.4978084575 
H 1.9361497466 1.5773465893 4.2902062671 
H 4.3748614377 4.9272575511 1.3063193431 
O 1.5151843689 4.6115879446 3.4982169987 
H 0.5728812713 4.9134229815 3.5051592100 
H 1.4880810417 3.6215563774 3.4969908390 
O 2.7420354045 1.0069972026 1.2688013330 
H 2.2959019212 1.3388402744 2.0871404035 
H 3.6716884815 1.3434068237 1.3029609691 
O 5.2725246018 1.9291777041 1.3117228572 
O 5.3185118619 4.6285530903 1.3041007280 
H 5.2949898064 3.6389809187 1.3026735752 
H 5.7615315328 1.5812646798 0.5242617661 
H 5.7563393021 1.5936410091 2.1064932399 
O 6.5507386542 1.0322888301 3.5088060611 
H 7.4947066153 1.3292768526 3.5065476053 
O 9.1095220457 1.8762660388 3.5343163317 
H 9.1272610419 2.8656131306 3.5021659306 
H 9.5786439317 1.5660271496 2.7197629902 
O 9.0967198868 4.5667471067 3.4969740278 
H 9.5819475080 4.9120221969 4.2857635583 
H 9.5762832044 4.9155962440 2.7052113518 
H 9.9348083339 1.3198392485 0.5177947990 
O 12.9138364271 4.6219270770 1.3283064604 
H 12.9299718087 3.6329757251 1.3053346453 
H 13.3881399130 4.9262312914 0.5145494792 
O 12.9504701583 1.9250918443 1.2840158440 
H 12.0247867314 1.5797037124 1.3045416653 
H 13.3909885471 1.5807613363 2.1002814623 
O 10.4017844763 1.0111856843 1.3329131838 
O 14.2057407864 1.0184207263 3.4777127918 
H 13.7421404820 1.3250125298 4.2974158591 
O 2.7778851192 5.5126505593 1.3090963489 
H 2.2969743148 5.1723065443 0.5151646120 
H 2.2913693831 5.1661813013 2.0990725362 
O 1.5237360412 9.0784551927 3.4998838113 
H 0.5851186924 8.7656842404 3.5047444115 
H 4.4099393396 8.7657166719 1.3058760535 
O 2.8096840288 8.2051864866 1.2897062889 
H 2.7832711442 7.2160713250 1.3138409095 
H 2.3313283207 8.5141129696 2.0984994844 
O 6.5658574495 5.5175521488 3.5257739356 
H 6.1157764258 5.1806218317 2.7121595267 
H 7.4902789107 5.1677146813 3.4990179446 
O 5.3354498889 9.1168437586 1.2798005374 
H 5.7797403375 8.7822300015 2.0973670534 
O 6.5966862999 8.2265828461 3.4942338916 
H 6.5786503600 7.2380189670 3.5145334133 
H 6.1217619692 8.5293500671 4.3080756164 
O 9.1570443428 9.0942371982 3.5202147098 
H 8.2154707962 8.7908602796 3.5210032528 
H 9.9450438979 8.5308543409 2.1039801272 
O 10.3582078904 5.4921270913 1.3039810136 
O 10.3836520201 8.1883495679 1.2871361296 
O 14.2285249497 5.5063498010 3.5139901654 
H 13.7417109304 5.1644844464 4.3040323755 
H 13.7407446191 5.1708390736 2.7213563078 
H 10.3868445051 6.4813599788 1.3083761940 
H 11.3000420200 5.1888680290 1.3054645905 
O 12.9208432696 9.1007586000 1.3049804836 
H 13.4083287232 8.7605378442 0.5142964733 
H 13.4075183254 8.7651143372 2.0973057861 
H 11.3142620596 8.5217775558 1.3097176086 
O 14.2292392838 8.1995460399 3.4955036708 
H 13.7555858003 8.5021963597 4.3089379041 
H 14.2111797996 7.2104692146 3.5153182395 
H 1.4855898988 10.0663117850 3.4932734045 
O 1.4456407242 11.7843439340 3.4836082551 
H 1.9329692932 12.1272032526 2.6946763126 
H 1.9298242067 12.1238685298 4.2758543633 
O 2.7346049302 12.6900671680 1.2948044413 
H 2.7595735073 13.6797242528 1.2902618013 
H 3.6772893200 12.3889212911 1.2954134288 
H 6.5710377077 14.4214733401 3.5017052236 
O 5.2904620789 11.8203643541 1.3166372343 
H 5.3064045658 10.8315672286 1.2969295778 
H 5.7666829387 12.1216125229 0.5026702713 
O 6.5875950141 12.7156182825 3.5015210949 
H 6.1082470261 12.3755558648 2.7058181136 
H 6.1020207141 12.3699336718 4.2902422154 
H 9.1279368636 10.0833848897 3.5212034809 
O 9.1293258891 11.7923370492 3.5281749766 
H 9.5663521761 12.1254343249 2.7048949284 
H 8.1994960214 12.1270397177 3.5037923471 
H 9.9180596746 12.3631784027 0.4960329157 
O 10.3621493618 12.6994525326 1.3133529485 
H 10.3867647889 14.4004895832 1.3032549221 
H 14.1838933015 14.4081543076 3.5021757327 
O 12.8927455428 11.7946198184 1.3079950051 
H 12.9206149331 10.8052285364 1.2917805145 
H 13.3755369757 12.0963586002 0.4988995295 
O 14.1572478236 12.6940928095 3.5166853077 
H 13.7128484863 12.3579363497 2.7002048052 
H 15.0880150308 12.3610540620 3.4841305933 
H 11.2886664030 12.3527788133 1.2849170600 
O 2.7606217491 1.0239721978 5.6609673846 
H 2.2924102643 1.3215141174 6.4805618917 
H 4.3779574013 1.5890590143 5.6870384038 
O 1.4987362677 4.6235204419 7.9272576041 
H 1.5085090974 3.6356419044 7.9003300706 
H 1.9684530178 4.9285445440 7.1114358333 
O 1.5071893268 1.9097412648 7.8753127507 
H 1.9496230024 1.5646306791 8.6887527638 
H 0.5775044762 1.5721630522 7.9026343028 
O 5.2923204961 4.6219742368 5.7263906028 
H 5.7656995700 4.9238802888 4.9114661104 
H 5.2994315452 3.6315487926 5.6998678436 
O 5.3036157289 1.9345560548 5.7198472800 
H 5.7569670779 1.5926807877 4.9098351668 
O 6.5451321062 1.0103325733 7.9407015401 
H 6.1057235640 1.3475989019 7.1219572873 
H 7.4795219973 1.3340402875 7.9064542090 
H 9.9365622086 1.3196377166 4.9044778934 
O 9.0916768437 4.6047052493 7.8743335212 
H 9.1053292672 3.6160712239 7.8912400618 
H 9.5658044748 4.8997444914 8.6921223611 
O 9.0877286805 1.8992073074 7.8941106475 
H 9.5767271451 1.5611477015 7.1035091913 
H 9.5778011791 1.5689913585 8.6869809312 
O 10.3819746248 0.9777132607 5.7200921187 
O 12.9382931679 4.5748414691 5.6961283465 
H 13.3824799562 4.9153244124 6.5105007314 
H 12.0114065688 4.9218590367 5.7173787139 
H 11.3092420127 1.3196285904 5.6950965481 
O 12.9285768733 1.8853927616 5.6798519649 
H 12.9331109180 2.8747984885 5.7082181058 
H 13.3951497908 1.5801750209 6.4970791875 
O 14.2174857573 1.0178046541 7.8845755396 
H 13.7481816389 1.3191238770 8.7015641298 
O 2.7620817510 5.5188821692 5.7225035164 
H 2.3166654609 5.1746451925 4.9097460214 
H 3.6909133733 5.1762492671 5.6974030947 
O 2.7814792428 8.2068954341 5.7324358547 
H 2.7695954403 7.2170430995 5.7032540219 
H 2.3130394294 8.5144253218 4.9178717947 
H 4.3945886759 8.7712250642 5.7160834150 
O 1.5217889147 9.0989710409 7.9321912972 
H 1.9610272725 8.7561593709 7.1144300981 
H 0.5911607011 8.7651767728 7.9106607875 
O 6.5529228621 5.5097471194 7.9262892863 
H 6.1070481184 5.1685475462 7.1114521672 
H 7.4793500209 5.1643038725 7.9008509996 
H 9.9317228829 5.1775918831 6.4930133445 
O 5.3208880742 9.1183626707 5.6933039832 
H 5.7648987592 8.7721882396 6.5071763108 
O 6.5844584517 8.2046821010 7.8885619500 
H 6.5679876093 7.2151215232 7.9084790539 
H 6.1182970782 8.5065633240 8.7078321739 
H 9.9445124388 8.5261928693 4.9196445135 
H 9.9333114314 8.5183802495 6.5009635991 
O 9.1350230101 9.0769015099 7.8929970256 
H 8.1947796846 8.7690922941 7.8960370848 
O 10.4086750953 5.4821408973 5.6819975666 
H 10.3966537761 6.4715896483 5.7065594354 
O 14.1886976708 5.4781417892 7.9228539412 
H 15.1322920179 5.1817272236 7.9170173770 
H 14.2102908247 6.4674089431 7.9226414599 
O 10.4236934218 8.1764633255 5.7116761713 
O 12.9634898958 9.0622183781 5.7264101150 
H 12.0214186442 8.7576489991 5.7245506827 
O 14.2367003548 8.1790146794 7.9182496725 
H 13.7505331543 8.5166238442 7.1243517944 
H 13.7487941443 8.5214561996 8.7072144675 
H 2.7469732165 14.4124715802 5.6802684190 
O 2.7383242080 12.7099697542 5.6675515409 
H 3.6675675627 12.3713932254 5.6916500649 
H 2.3015824225 12.3700415990 6.4878730589 
O 1.4921144502 11.8033737345 7.8734802470 
H 1.9578053007 12.1070135077 8.6925073740 
H 1.5106552839 10.8147987924 7.8978566719 
O 5.2783663533 11.8110417086 5.6820424821 
H 5.7414274121 12.1193150560 6.4995798808 
H 5.2942752102 10.8216813925 5.7123592809 
O 6.5326932805 12.6851566911 7.9176052441 
H 7.4748171194 12.3817414450 7.9118790625 
H 6.5582911490 13.6738764947 7.9185484703 
H 9.9285230852 12.3673434783 4.9122747686 
O 9.0685745478 11.7743522920 7.9092339857 
H 9.5534671200 12.1132904722 7.1162366474 
H 9.5589507963 12.1178094151 8.6976340874 
H 9.1037814413 10.0662777443 7.8990374474 
H 14.2062674568 14.4073799784 7.9071997504 
O 12.9328645816 11.7575147217 5.7348382081 
H 12.0027731451 12.0941902280 5.7133238562 
H 13.3668801090 12.0942004393 4.9127242103 
O 10.3958259122 12.6615584134 5.7337467595 
H 10.3909392568 13.6511274130 5.7111303274 
H 12.9319849886 10.0517637753 5.7264116700 
O 14.1889506059 12.6962118642 7.9254994071 
H 15.1163071601 12.3564267595 7.9001090941 
H 13.7430997878 12.3526340807 7.1120922310 
O 1.5183195545 1.8855602504 12.3100778122 
H 0.5753107231 1.5869344951 12.3149968513 
H 1.4955143528 2.8744725820 12.3140646735 
H 4.3884958068 4.9382127874 10.1230629333 
O 1.4697103982 4.5869492282 12.3195545887 
H 1.9530814958 4.9311013691 11.5288479045 
H 1.9516011626 4.9331659460 13.1112090680 
O 2.7536767501 0.9681784716 10.0934698257 
H 2.3035079095 1.3141005417 10.9032963323 
H 3.6778223452 1.3184419619 10.1222015286 
O 5.2901654757 1.8956101958 10.1494280871 
O 5.3163695373 4.5946834355 10.1498717557 
H 5.7562649551 4.9252980548 9.3279327978 
H 5.2989733300 2.8848055698 10.1338555333 
H 5.7574550072 1.6023829439 9.3279932008 
O 6.6095465263 0.9791311539 12.3081648612 
H 6.1291113407 1.3190432443 13.1030956004 
H 6.1203828536 1.3272019196 11.5209077337 
O 9.1502143389 1.8709174596 12.3054085617 
H 8.2078185074 1.5696268023 12.3074326275 
H 9.1258017591 2.8607731208 12.3134359582 
O 9.1398604163 4.5609653885 12.2974909558 
H 8.2116072084 4.9009499917 12.3232758320 
H 9.5830126450 4.9077130235 13.1111268135 
H 9.9393949893 1.3267690024 10.9002410081 
O 10.3790388356 0.9876830861 10.0807003576 
O 12.9018796799 4.5653406255 10.0986111913 
H 13.3985148586 4.9091956398 9.3146530467 
H 13.3804927482 4.8984193991 10.8973598516 
O 12.9173303965 1.8778494841 10.0852291534 
H 13.3864782184 1.5775996197 10.9032937634 
H 12.9276146836 2.8680266831 10.1074614984 
H 11.3092910578 1.3246361981 10.1054392202 
O 14.2127525777 1.0271305478 12.2935981554 
H 13.7423692720 1.3333478364 13.1082712252 
O 2.7854983148 5.4947663252 10.1393848167 
H 2.7763792937 6.4843486132 10.1175514655 
H 2.3200523692 5.1937219341 9.3202883119 
O 1.4970413725 9.1121903149 12.2914600414 
H 1.9405911198 8.7727995218 13.1076971801 
H 0.5720394474 8.7639330462 12.3112245083 
H 4.4005418365 8.7680564971 10.1211027080 
O 2.8051053053 8.1898204855 10.1203258951 
H 2.3206345169 8.5218465271 9.3241423672 
H 2.3103730707 8.5274192052 10.9075069056 
O 6.5932413216 5.4713412335 12.3490522181 
H 6.1214784115 5.1741367010 11.5315188375 
H 6.5882838992 6.4608945801 12.3263324394 
H 9.9314426297 5.1476237802 10.8916195953 
O 5.3442063299 9.0668926026 10.1219533638 
O 6.5797124910 8.1650096674 12.3451578774 
H 6.1373415160 8.5044909724 11.5278410096 
H 7.5077643369 8.5057692833 12.3168483665 
O 9.1202113241 9.0690510235 12.3309941593 
H 9.5797282463 8.7628524029 11.5111717263 
H 9.9236041826 8.5061451323 9.2982818107 
O 14.1761179141 5.4856904452 12.2885386337 
H 13.7356318105 5.1510431741 13.1082515202 
H 15.1087018488 5.1583928767 12.3175321979 
O 10.3662886749 5.4847855335 10.0704228675 
H 11.2962225998 5.1484988036 10.0914907911 
O 12.9470414524 9.0741832514 10.1102359903 
H 12.0075628807 8.7642792513 10.0974178013 
O 10.3970426903 8.1952699509 10.1093396343 
H 10.3759258949 7.2073661183 10.0835882606 
O 14.2096488873 8.1929801563 12.3203211763 
H 14.1902411239 7.2046184001 12.3013859726 
H 13.7330648284 8.4983725880 11.5087153535 
H 4.3856174317 12.0994055326 10.1091200606 
O 1.4662843307 11.8055290080 12.2975324908 
H 1.9405965370 12.1047274717 13.1114855672 
H 1.4774767800 10.8158197052 12.3207506023 
O 2.7658204344 12.6607295684 10.0852999795 
H 2.7617205461 13.6505456471 10.1147514058 
H 2.2973037088 12.3571210537 10.9009612342 
O 5.3148853144 11.7612797351 10.1274393944 
H 5.7534153585 12.1157723190 9.3137546510 
O 6.6035123481 12.6621789577 12.3210650891 
H 6.1232696108 12.3556179934 11.5122197713 
H 6.5845917706 13.6516687371 12.2960445326 
H 5.3195840941 10.0560199805 10.1140685799 
H 9.1247234471 10.0591873558 12.2984387796 
O 9.1300543037 11.7550074247 12.3140469840 
H 8.2032865881 12.1013010339 12.2916887236 
H 9.5735381636 12.0997108070 11.4996764664 
O 10.3518881190 12.6719467071 10.0913181931 
H 14.1935294763 14.4164033200 12.3177511476 
O 12.8881863996 11.7818949809 10.1107068724 
H 13.3766732014 12.1234404071 10.8999377893 
H 13.3769535874 12.1139241549 9.3179767105 
O 14.1824446471 12.7156436850 12.2883647189 
H 13.7405344657 12.3680118166 13.1018063513 
H 15.1102064503 12.3732323160 12.3142553165 
H 12.9132147304 10.0624545891 10.1096263820 
H 11.2954906184 12.3726898380 10.0966725202 
H 10.3773528922 13.6615568294 10.0970001999 
O 2.8030844099 0.9816726823 14.4973810498 
H 2.3139770286 1.3208625518 13.7073517191 
H 2.3156733084 1.3192212616 15.2895611578 
H 4.3997396812 1.5741388578 14.5100792629 
O 1.4781180928 4.6140442914 16.7267618154 
H 1.4971644531 3.6253338808 16.7005748666 
H 1.9506082532 4.9227210058 15.9145544446 
O 1.5131336619 1.9117855338 16.6699448596 
H 1.9512981461 1.5805526208 17.4928348772 
H 0.5831844099 1.5761663427 16.6954445346 
O 5.2997862565 4.6178453027 14.5427504440 
H 5.3121921245 3.6292983067 14.5208222707 
H 5.7705184429 4.9196785447 13.7255509727 
O 5.3282100257 1.9149272227 14.4958145893 
H 5.7617868752 1.5766310333 15.3164818013 
O 6.5434352999 1.0202004071 16.7460376948 
H 7.4838808297 1.3244825264 16.7405178409 
H 9.9329398787 1.3058179206 13.7206831784 
O 9.1309141853 4.5902374032 16.6932371772 
H 9.5758975455 4.9354569453 17.5062790598 
H 8.2041788621 4.9333973028 16.7185423692 
O 9.1132200340 1.8839772381 16.7421631928 
H 9.1276376796 2.8719378837 16.7109690273 
H 9.5759956124 1.5704192558 15.9264767848 
O 12.9319607440 4.5713539394 14.4977387831 
H 13.3748012449 4.9147134209 15.3119487283 
H 12.0049167370 4.9182367563 14.5204865538 
O 10.3979560377 0.9988335955 14.5379949070 
O 12.9532932508 1.8826491025 14.5226759574 
H 12.9179353697 2.8721671375 14.5228176153 
H 12.0147164289 1.5712661572 14.5218637924 
O 14.2343501539 0.9853074547 16.7088848315 
H 13.7426724286 1.3266650432 15.9208011489 
H 13.7555131455 1.3264244713 17.5033635075 
O 2.7400596594 5.4919385002 14.5110039502 
H 3.6806415095 5.1856929066 14.5126390121 
H 2.7699213357 6.4816261404 14.5097389334 
O 2.7527269863 8.1843495765 14.4917322007 
H 3.6813341629 8.5225211463 14.5155304390 
H 2.3159576803 8.5210659414 15.3133745566 
O 1.5011506713 9.0774128071 16.6987849142 
H 1.9765643142 8.7743913728 17.5108727294 
O 5.2923594784 9.1165938545 14.5201261695 
O 6.5954134401 5.5262039512 16.7259838865 
H 6.1126779552 5.1830711114 15.9336025677 
H 6.1068746650 5.1875387613 17.5168043336 
H 9.9310825028 5.1777459474 15.3052859737 
H 5.7753842228 8.7784971436 15.3142699819 
H 5.7788095484 8.7696445029 13.7326090178 
O 6.6043970965 8.2178804249 16.7007703417 
H 6.5836804016 7.2281949572 16.7230455050 
H 6.1338488956 8.5228111977 17.5169203670 
H 9.9423287703 8.5124303668 13.7153372588 
H 9.9373893471 8.5074630910 15.2990871196 
O 9.1366917084 9.0963921025 16.6851956534 
H 8.2054155918 8.7605927299 16.7151868827 
H 9.5783008973 8.7657699292 17.5053966573 
O 10.4057848116 5.4742487016 14.4887295727 
H 10.3939634831 6.4642340981 14.5087748346 
O 14.1748576069 5.4803117782 16.7287068415 
H 15.1148532846 5.1731911725 16.7169326004 
H 14.2070882505 6.4695199504 16.7239752537 
O 10.4258816464 8.1702027630 14.5077781544 
O 12.9630276716 9.0877319071 14.5353949943 
H 13.3996641110 8.7502146431 13.7147117542 
H 12.0325999209 8.7531268073 14.5101519861 
O 14.2069127500 8.1717719386 16.7427936502 
H 15.1352775048 8.5110487436 16.7197132201 
H 13.7675178655 8.5074928253 15.9228223383 
O 2.7514758428 12.6631636111 14.5264162245 
H 2.7800834412 13.6524600925 14.5147262175 
H 3.6929492544 12.3591231374 14.5229258436 
O 1.4728543647 11.7723641909 16.7229566368 
H 1.9615251394 12.1129833133 15.9327391015 
H 1.9526075655 12.1229142064 17.5149219072 
H 1.5087512770 10.0668532677 16.7254151557 
H 6.5754081081 14.4091254605 16.7409963858 
O 5.3095316066 11.8065259966 14.5381287351 
H 5.3231407175 10.8165432115 14.5166900929 
H 5.7806084791 12.1071473992 13.7220216957 
O 6.5708280317 12.7083674191 16.7428363529 
H 6.1287284360 12.3691390272 15.9254005052 
H 7.4986047283 12.3654970811 16.7140605744 
H 9.9344236755 12.3396041152 13.7072823232 
O 9.1043974572 11.8008942808 16.7204725491 
H 9.5773492306 12.0983218657 15.9029675307 
H 9.1182494377 10.8114190868 16.7017303880 
H 10.3849426384 14.3887781105 14.5089515039 
O 12.9238676491 11.7899715206 14.4887549485 
H 12.9465814923 10.8010933662 14.5077864672 
H 13.3991719620 12.0923046839 15.3020800009 
O 10.3769113171 12.6813007610 14.5233965745 
H 11.3051475826 12.3405036005 14.5007147714 
O 14.1862715384 12.6564238756 16.7092234232 
H 14.2134504202 13.6448457153 16.7085317693 
H 15.1288167701 12.3532112241 16.7158526961 

