&CONTROL
   calculation      = 'vc-relax'
   tstress          = .true.
   tprnfor          = .true.
   outdir           = './'
   pseudo_dir       = '/global/homes/p/ppiaggi/QuantumEspresso/pseudos'
/
&SYSTEM
   ecutwfc          = 150
   input_dft        = 'SCAN'
   ntyp             = 2
   nat              = 384
   ibrav            = 0
/
&ELECTRONS
   mixing_beta      = 0.5
   startingpot      = 'atomic'
   startingwfc      = 'atomic+random'
/
&IONS
/
&CELL
/

ATOMIC_SPECIES
O 15.999400004115753 O_ONCV_PBE_sr.upf
H 1.0079400002592869 H_ONCV_PBE_sr.upf

K_POINTS gamma

CELL_PARAMETERS angstrom
15.25560149793138 0.00000000000000 0.00000000000000
0.00000000000000 14.37549079844079 0.00000000000000
0.00000000000000 0.00000000000000 17.61313038158112

ATOMIC_POSITIONS angstrom
O 1.4574872244 1.9273002342 3.5306960310 
H 1.9462638618 1.5917730139 4.3225260696 
H 1.9500390434 1.5926221795 2.7409034477 
O 1.4662106300 4.6217752695 3.4898567233 
H 1.9468626331 4.9265614338 4.2995801190 
H 1.4790752300 3.6322790361 3.5204121720 
O 2.7517692443 1.0037936411 1.3513182991 
H 2.3108365714 1.3366066063 0.5313962889 
H 3.6806835261 1.3443061444 1.3261907777 
O 5.2800143431 4.5991877984 1.3083081888 
O 5.2898175194 1.8995762526 1.3455161095 
H 5.7647132710 4.9309751640 0.5137243212 
H 5.7672305977 4.9441415339 2.0973702082 
H 5.3029341116 2.8884525997 1.3164540202 
H 5.7595954782 1.5913584496 0.5309080764 
O 6.5933383207 1.0141961868 3.5405635421 
H 6.1199200266 1.3236795427 2.7297258874 
O 9.1300492185 1.9403582002 3.4985800692 
H 9.5747249681 1.5991086701 4.3144970534 
H 8.2049952299 1.5911771585 3.5235539269 
O 9.1047968326 4.6304091101 3.4786760855 
H 9.1145212005 3.6408826837 3.5111625462 
H 9.5759709109 4.9379981381 4.2930764701 
H 9.9428371248 1.3410961599 2.1079189596 
O 10.3847518696 0.9974152018 1.2934913100 
O 12.9318810315 4.5838060404 1.2757696252 
H 13.3785509769 4.9263856777 2.0897195570 
H 12.0039261664 4.9270855904 1.3003000374 
O 12.9160158156 1.8909915942 1.2724575904 
H 12.9236566306 2.8808451262 1.2959850063 
H 13.3872724694 1.5907351456 2.0891845659 
H 11.3139933512 1.3383065029 1.3117683530 
O 14.1835455218 0.9914159622 3.4717366852 
H 13.7326722638 1.3262866405 4.2860687811 
H 15.1102789052 1.3344026584 3.5094749294 
O 2.7318704885 5.5021304471 1.2846088315 
H 2.2888635811 5.1646847183 2.1026767272 
H 3.6617590983 5.1676529382 1.3109154796 
O 1.4685583945 9.1121427134 3.5122286342 
H 1.9490513511 8.7707209904 2.7184096810 
H 1.9522541484 8.7633332266 4.3016475900 
H 4.3778689435 8.7641536411 1.3064302216 
O 2.7673212752 8.2050056437 1.3259750871 
H 2.3037675498 8.5051413396 0.5053037379 
H 2.7514960377 7.2159591475 1.3059720674 
O 6.5474875655 5.5005174991 3.5050303570 
H 6.5728613658 6.4897332175 3.5128548950 
H 7.4903890589 5.2000315400 3.4998164427 
H 9.9283933717 5.1723199463 2.0883674722 
O 5.3051020269 9.1080751586 1.3300224026 
H 5.7517927753 8.7608619302 0.5186021200 
O 6.5541652151 8.2016596906 3.5431248980 
H 7.4849070376 8.5361206011 3.5103334185 
H 6.1097037150 8.5359632636 2.7249444086 
O 9.0907259105 9.1113343883 3.5023705736 
H 9.5716806310 8.7692306278 2.7080319555 
H 9.5785507584 8.7698357125 4.2926438454 
H 9.9266161967 8.5229831008 0.5088536700 
O 10.3663849642 8.1749724818 1.3241538911 
O 14.1690647725 5.4860587401 3.4928279548 
H 15.1112437039 5.1833313216 3.5012064221 
H 14.1957209157 6.4757943340 3.4981885312 
O 10.3959304092 5.4751139183 1.2702552859 
H 10.3789145134 6.4641502049 1.2959453779 
O 12.9075401802 9.0932862784 1.2942779458 
H 13.3928918763 8.7504698535 0.5036095735 
H 13.3915771434 8.7559500621 2.0876393532 
H 11.2968289670 8.5079058620 1.3008806401 
O 14.1894194046 8.1761101766 3.4860221943 
H 13.7454596960 8.5168937550 4.3015900105 
H 15.1175819055 8.5158965599 3.5100375391 
H 4.3899462219 12.1054522345 1.3025814759 
O 1.5105394655 11.8072189740 3.5158992955 
H 0.5683608310 12.1097127250 3.5148210582 
H 1.4856867922 10.8176730962 3.5180581481 
O 2.7723545794 12.6730934831 1.2883894083 
H 2.2980272272 12.3674309430 2.1006344628 
H 2.7582279927 13.6615872684 1.3171202814 
H 6.5868883439 14.4000352654 3.5092364949 
O 5.3307247622 11.8009073834 1.2984909468 
H 5.3013689087 10.8114849981 1.3027204140 
O 6.5768095451 12.7021823264 3.5223509353 
H 7.5028742875 12.3541674102 3.4968748414 
H 6.1294289367 12.3614868567 2.7090370412 
O 9.1051259125 11.7970482957 3.5229071438 
H 9.1194516587 10.8065700894 3.4999869106 
H 9.5775507985 12.0995478185 2.7079772233 
H 9.9283468321 12.3675121795 0.5007363414 
O 12.9543988484 11.7954229271 1.3014242782 
H 12.0136169707 12.1016247586 1.2951207459 
H 12.9256449597 10.8067358666 1.2957167334 
O 14.2111157589 12.6687938482 3.5229193252 
H 13.7408613347 12.3607926852 2.7090426817 
H 14.1963773418 13.6578922152 3.4966146405 
O 10.4022317848 12.6663645525 1.3175980688 
H 10.3917947694 13.6548970290 1.3000335270 
O 2.7470690281 1.0267475690 5.7211803156 
H 3.6903446645 1.3277916318 5.7188795495 
O 1.5194085938 4.6219831313 7.8979897799 
H 0.5782254237 4.9270414729 7.8946718440 
H 1.4887511796 3.6332893009 7.9013835341 
O 1.4611828597 1.9202797394 7.9039340309 
H 1.9548945028 1.5805116087 7.1163750374 
H 1.9390962543 1.5805383711 8.6990505719 
O 5.2953308630 4.5635038337 5.6989693503 
O 5.3016903338 1.8739142494 5.7395742416 
H 5.7774667352 4.9047886248 6.4918103163 
H 5.7741538479 4.9184227293 4.9097851843 
H 5.3195502955 2.8629103931 5.7051534990 
H 5.7712730471 1.5604684664 4.9263114986 
O 6.5765232900 1.0079893355 7.9545791908 
H 6.1137137546 1.3109748522 7.1343995328 
H 9.9132298564 1.3276777231 6.5098390517 
O 9.1483693318 4.6031685353 7.8870057055 
H 8.2073432342 4.9095017436 7.8994699028 
H 9.1172337627 3.6138174875 7.8946213460 
O 9.1194757667 1.9127740918 7.8935427936 
H 8.1911483195 1.5720998170 7.9243498044 
H 9.5655400306 1.5802346058 8.7121027646 
O 12.9053051186 4.5797593066 5.6895902849 
H 13.3919101254 4.9203880126 6.4802763465 
H 13.3869373458 4.9244843450 4.8971033894 
O 10.3851324410 1.0278685567 5.6929314551 
O 12.9478481652 1.8812848959 5.6983965498 
H 12.9291015089 2.8703314138 5.6938725651 
H 12.0046261098 1.5852391106 5.7042715539 
O 14.1917183345 0.9823078169 7.9224709824 
H 13.7469751239 1.3208259036 7.1073410124 
H 15.1194676541 1.3248527499 7.8975192428 
O 2.7629795716 5.5052073957 5.6783298185 
H 2.3186431664 5.1675962858 6.4955487878 
H 3.6890245263 5.1585445425 5.7006661725 
O 2.7395731678 8.1977492690 5.7005705240 
H 2.7710572373 7.2084586351 5.6973190714 
H 3.6796946814 8.5053180880 5.7085763970 
O 1.5021910291 9.1036588636 7.9141687567 
H 0.5746150234 8.7618107666 7.8934717699 
H 1.9446917477 8.7584781936 7.0995279910 
O 5.2949819256 9.0782117496 5.7486706974 
O 6.5983720034 5.4653379417 7.8905560263 
H 6.1241860075 5.1567573844 8.7019319768 
H 6.5764287329 6.4546674257 7.9182733343 
H 9.9328982520 5.1695823542 6.4894089253 
H 5.7639122007 8.7807693536 4.9290389235 
O 6.5958880436 8.1596608126 7.9280028125 
H 6.1139590077 8.5039924767 8.7206447248 
H 6.1114925564 8.5078168105 7.1388016426 
H 9.9262034588 8.5146258516 6.4961127377 
O 9.1286163737 9.1018338767 7.8863738434 
H 8.2029218591 8.7562731855 7.9173995209 
H 9.5792585818 8.7594045304 8.6974458735 
O 10.3775032971 5.5178415515 5.6763592786 
H 11.3045121079 5.1734704122 5.6977141766 
O 14.2184681863 5.4789744464 7.8705819131 
H 13.7481209418 5.1709214965 8.6839544830 
H 14.1996946978 6.4688421298 7.8952984498 
O 10.3943995493 8.2129320310 5.6781876444 
H 10.3853836383 7.2236363964 5.7035873386 
O 12.9510009409 9.0718073647 5.7009318498 
H 12.0078548113 8.7724135595 5.7032326555 
O 14.2253328213 8.1652061269 7.8930252477 
H 13.7433971912 8.5111101385 8.6854690985 
H 13.7384566251 8.5078686515 7.1027961263 
H 2.7733531280 14.4128559845 5.7129804279 
H 4.3952340375 12.1205724566 5.6967592931 
O 2.7977795653 12.7047775090 5.7025753555 
H 2.3096666251 12.3676827843 4.9106572110 
H 2.3117648750 12.3599584408 6.4923566017 
O 1.5209947322 11.7951718115 7.8899803108 
H 1.4910978041 10.8055810134 7.8888732374 
H 0.5793709999 12.0988563632 7.8936108227 
H 6.5704912136 14.3935831459 7.9273436055 
O 5.3244045583 11.7822565286 5.7315173858 
H 5.7732515162 12.1132630365 4.9149391435 
H 5.3072026824 10.0669327934 5.7270753182 
O 6.5633386948 12.6950097205 7.9430321807 
H 6.1195548905 12.3634596332 7.1233481841 
H 7.4933838654 12.3573274742 7.9112482811 
H 9.9195597947 12.3517336508 4.9020767404 
O 9.0981253098 11.8071562030 7.9248977371 
H 9.1117993626 10.8182603533 7.9050637409 
H 9.5626298420 12.1076412851 7.1039854128 
H 10.3644121840 14.4148306119 5.7070455203 
O 10.3581830260 12.6945932503 5.7207909061 
O 12.9072689919 11.7666591500 5.7092877312 
H 13.3886191448 12.1102436128 4.9170261958 
H 13.3911830941 12.1090928333 6.5010943020 
H 11.2864578362 12.3571284253 5.7012259870 
H 12.9287463259 10.0612887997 5.7082309043 
O 14.2150696236 12.6584348179 7.8874984908 
H 14.2034140426 13.6476144657 7.9092107112 
H 13.7474301974 12.3564831090 8.7059218606 
O 1.4770186356 1.8865937146 12.3021969847 
H 1.9537663549 1.5804098249 13.1122450267 
H 1.5027896436 2.8768950364 12.3225243938 
H 4.3931650621 4.9223244800 10.1077345942 
O 1.4858865578 4.5726349722 12.3119570288 
H 1.9713480769 4.9199182762 11.5244535500 
H 1.9636246096 4.9168920463 13.1079291607 
O 2.7330580325 0.9814656182 10.1007466019 
H 2.2936584487 1.3248595798 10.9176005940 
H 3.6634663172 1.3156266157 10.1262728786 
O 5.2884625190 1.8685263282 10.1534181447 
O 5.3160253448 4.5662818279 10.0891298236 
H 5.7630673078 4.9157936658 10.8989409507 
H 5.2974768821 2.8573117999 10.1257331358 
H 5.7550947103 1.5626759314 9.3361273940 
O 6.5934900242 1.0077759424 12.3550565030 
H 6.1195397120 1.3100198000 11.5410227242 
O 9.1350653917 1.9336030800 12.3086549118 
H 9.5825374084 1.5937195740 13.1231641235 
H 8.2106831828 1.5848684538 12.3333922390 
O 9.1120607834 4.6326332597 12.3164474300 
H 9.1251471358 3.6432895873 12.3043501534 
H 9.5854005319 4.9274775392 11.4997049279 
H 9.9341928560 1.3449881901 10.9145507562 
O 10.3707250913 1.0079967781 10.0937330371 
O 12.9211558859 4.6023638833 10.0752429898 
H 12.9328164745 3.6131773756 10.0986376567 
H 13.3956080251 4.9041584756 10.8894900107 
O 12.9062524198 1.9036874811 10.1037649773 
H 13.3966965853 1.5719011658 10.8963345291 
H 13.3943745363 1.5660797497 9.3124521408 
H 11.3036373185 1.3367743702 10.1158941117 
O 14.2008513817 0.9884484208 12.2859698116 
H 13.7525745500 1.3315142718 13.0980101140 
H 15.1283992829 1.3321310221 12.3145187614 
O 2.7888581633 5.4950621337 10.1254960391 
H 2.3141621528 5.1931553992 9.3126922548 
H 2.7733887490 6.4845362604 10.1053193307 
O 1.5202328941 9.0786399355 12.2969539820 
H 0.5796587370 8.7735129997 12.2983048718 
H 4.3828968522 8.7756474169 10.1144652931 
O 2.7905645363 8.1890982893 10.1063694326 
H 2.3061162470 8.5243862923 9.3118387377 
H 2.2998541142 8.5283010732 10.8966371514 
O 6.5545630218 5.4848507277 12.3049751955 
H 6.5726649810 6.4740969451 12.3039096882 
H 7.4987865910 5.1901822848 12.3001695013 
H 9.9477402367 5.1638115483 9.2964688409 
O 5.3265847336 9.0755730402 10.1213672905 
O 6.5977496849 8.1827624018 12.3025623987 
H 6.1204274197 8.5223241260 13.0979369569 
H 6.1081568079 8.5269834702 11.5134084232 
O 9.1374755281 9.1003970594 12.3241838498 
H 8.2080172361 8.7631780472 12.2981168197 
H 9.5821775915 8.7554058754 11.5107253661 
O 10.3715932099 8.1971456444 10.1026637230 
H 10.4025762952 7.2074833659 10.0973516556 
O 14.1942472569 5.5003953087 12.2711011908 
H 15.1224306873 5.1626159865 12.3032904958 
H 13.7503645080 5.1687306439 13.0913115444 
O 10.3914803420 5.5081614792 10.1103360059 
H 11.3184505943 5.1608490048 10.0896069535 
O 12.9299657478 9.0767652197 10.0700331232 
H 13.3931619659 8.7708225762 10.8881695678 
H 11.3113975684 8.5044781480 10.0959481894 
O 14.2140930777 8.2073754993 12.2803612603 
H 14.2001534289 7.2189447514 12.3059222429 
H 13.7479720400 8.5137000723 13.0971991894 
H 1.4909715155 10.0689867994 12.2956799039 
H 4.3842969310 12.1071378618 10.1125159719 
O 1.5049823037 11.7639108255 12.3151988651 
H 1.9476113538 12.1048181465 11.4981754351 
H 0.5778287627 12.1068499411 12.2924897032 
O 2.7740499661 12.6592603081 10.1220158656 
H 2.7506577252 13.6486561567 10.1045449081 
H 2.3067857045 12.3560028116 9.3045901697 
H 6.5861407139 14.3938912562 12.3291067353 
O 5.3138109276 11.7699977726 10.1439781546 
H 5.7599825454 12.1062429730 9.3274318457 
O 6.5768250763 12.6897074369 12.3453717850 
H 6.1282258667 12.3558870892 11.5293474054 
H 7.5046035592 12.3484500644 12.3135827013 
H 5.3024834695 10.0656162724 10.1192406891 
O 9.1184950212 11.7934903892 12.3374193949 
H 9.1328191393 10.8040341200 12.3071968234 
H 9.5785366227 12.1023294398 11.5176628100 
H 9.9203787164 12.3742517192 9.3080240505 
O 12.9460922515 11.7715786226 10.0867951771 
H 12.0198580761 12.1153693706 10.1089277345 
H 13.3901677456 12.1185078953 10.9016295102 
O 14.2121240202 12.6735512476 12.2744715121 
H 13.7470088366 12.3700992918 13.0933567948 
H 14.2050225001 13.6634323549 12.3006429360 
H 12.9402038794 10.0657269309 10.0979783440 
O 10.3917261826 12.6749580334 10.1242611288 
H 10.3793928809 13.6632642772 10.1064145321 
H 4.3933523323 4.9071554744 14.4985049374 
O 2.7552389551 1.0079898971 14.5249832397 
H 3.6970774681 1.3125550053 14.5283750789 
O 1.4700952344 4.6129802175 16.6927234687 
H 1.9349523845 4.9144983406 17.5129306063 
H 1.4850716240 3.6244412701 16.7167074622 
O 1.5055360817 1.9056309382 16.7428898541 
H 1.9565418068 1.5642514521 15.9323231063 
H 0.5780316423 1.5646234216 16.7122483431 
O 5.3077445947 1.8741789824 14.5578143397 
O 5.3190387458 4.5609470163 14.5210861198 
H 5.7637270105 4.9070564324 13.7083891961 
H 5.3150764755 2.8633506648 14.5172239990 
H 5.7731600950 1.5605949811 13.7426021036 
O 6.5913638447 1.0199558921 16.7640057260 
H 6.1238757281 1.3234803542 15.9460327645 
H 9.9320841955 1.3281887316 15.3174795741 
O 9.1179066319 4.6000458381 16.6732502195 
H 9.1229366884 3.6108894387 16.7014421684 
H 9.5804278771 4.9032085307 17.4933605114 
O 9.1330581605 1.9063912993 16.7034308807 
H 8.2041125745 1.5660490033 16.7347611847 
H 9.5799201545 1.5728573645 17.5210047801 
O 12.9454712317 4.5979533178 14.4786371524 
H 13.3876344474 4.9285937526 15.2999573843 
H 12.0171857693 4.9373333464 14.5044037068 
O 10.4033090693 1.0320994382 14.4988610643 
O 12.9602941486 1.8970987684 14.5031016197 
H 12.9357486924 2.8861654769 14.5041246735 
H 12.0176725055 1.5967915086 14.5123839016 
O 14.2227770181 0.9856713025 16.7071845625 
H 13.7432766827 1.3305474268 15.9141485450 
H 13.7369029815 1.3307567574 17.4969827003 
O 2.7758331966 5.4786002378 14.4899823423 
H 2.7671762999 6.4675319557 14.5041854291 
H 2.3024620922 5.1817017902 15.3054032100 
O 2.7599458235 8.1775055989 14.5178647152 
H 3.6856945031 8.5244614973 14.5046958180 
H 2.3174147878 8.5252080004 13.7046128761 
O 1.4843663117 9.0642763087 16.7254655614 
H 1.9552303711 8.7614841690 15.9099773158 
O 5.3010720916 9.0793505678 14.5053896173 
O 6.5722376393 5.5077020937 16.7196350161 
H 6.1296093835 5.1619256227 15.9061571122 
H 7.5002644736 5.1667005538 16.6967314168 
H 9.9290710755 5.1772132787 15.2923275714 
H 9.9292681959 5.1964573037 13.7090696764 
H 5.7683638378 8.7732101343 15.3214633319 
O 6.5537824235 8.2022548619 16.7326514604 
H 6.5847470259 7.2131885224 16.7187357586 
H 7.4929685524 8.5115056580 16.7306019995 
H 9.9347350878 8.5239280259 13.7196499669 
O 9.1105394618 9.0878805348 16.7473332059 
H 9.5784370044 8.7848807839 15.9302239156 
O 10.4105605873 5.5333538722 14.5046833387 
O 14.1891331446 5.4983494324 16.6847264447 
H 13.7430537351 5.1630574903 17.5015109528 
H 15.1191869149 5.1596340251 16.7143850984 
O 10.4071224925 8.2231685226 14.5351579875 
H 10.3895480744 7.2332294432 14.5129983194 
O 12.9500180139 9.1128871727 14.4916371314 
H 13.3930186758 8.7622372067 15.3033881700 
H 12.0215508037 8.7712329300 14.5140369620 
O 14.1820638677 8.1931699831 16.7130286226 
H 15.1239188001 8.4948070643 16.7127317125 
H 14.2073148100 7.2035824558 16.7100752781 
H 2.7832708735 14.3952249530 14.5146626411 
H 4.4016115540 12.1043184695 14.5141094466 
O 2.7984590675 12.6754072019 14.5034172018 
H 2.3087555867 12.3424486514 15.2959988978 
H 2.3115827401 12.3417905226 13.7104914748 
O 1.5118169479 11.7684824592 16.6900339051 
H 0.5842898052 12.1138127212 16.7131901250 
H 1.9539927577 12.1116654366 17.5048561283 
H 1.4991372359 10.0531073152 16.7021935698 
H 6.5789932832 14.4055747503 16.7388320342 
O 5.3346253863 11.7778162051 14.5457816146 
H 5.7776149433 12.1108673277 13.7261965784 
H 5.3207124268 10.0686998028 14.5283538643 
O 6.6061875373 12.7077049408 16.7283171953 
H 6.1249735017 12.3732716658 15.9309736081 
H 6.1149180572 12.3624093761 17.5150379411 
H 9.9336783908 12.3576257676 13.7104280523 
O 9.1310331196 11.7877276268 16.7392674962 
H 9.5710625044 12.1240822602 15.9199433744 
H 8.2010998515 12.1269213219 16.7178696707 
H 9.1230188567 10.0768140053 16.7209134484 
H 10.3870206715 14.4182039417 14.5129242462 
O 12.9326306130 11.8070677322 14.4829086334 
H 13.4018817281 12.1114829133 15.2975158499 
H 12.9410679874 10.8178566274 14.5112051902 
O 10.3765349054 12.7071677998 14.5237633997 
H 11.3041475824 12.3671360352 14.5036246531 
O 14.2379097743 12.6716944284 16.6959670750 
H 13.7626630831 12.3645815983 17.5065513502 
H 14.2152354034 13.6615289522 16.7192963361 

