&CONTROL
   calculation      = 'vc-relax'
   tstress          = .true.
   tprnfor          = .true.
   outdir           = './'
   pseudo_dir       = '/global/homes/p/ppiaggi/QuantumEspresso/pseudos'
/
&SYSTEM
   ecutwfc          = 150
   input_dft        = 'SCAN'
   ntyp             = 2
   nat              = 384
   ibrav            = 0
/
&ELECTRONS
   mixing_beta      = 0.5
   startingpot      = 'atomic'
   startingwfc      = 'atomic+random'
/
&IONS
/
&CELL
/

ATOMIC_SPECIES
O 15.999400004115753 O_ONCV_PBE_sr.upf
H 1.0079400002592869 H_ONCV_PBE_sr.upf

K_POINTS gamma

CELL_PARAMETERS angstrom
15.25554626581766 0.00000000000000 0.00000000000000
0.00000000000000 14.37369654920849 0.00000000000000
0.00000000000000 0.00000000000000 17.60956180500537

ATOMIC_POSITIONS angstrom
O 1.4717713504 1.9317765573 3.5149914502 
H 1.9487390609 1.5866626883 4.3107133561 
H 1.9574962694 1.5822002407 2.7276524761 
H 4.3946057892 4.9217198567 1.3003846232 
H 4.3943637137 1.5745444427 1.3103152159 
O 1.4705227624 4.6219232673 3.4845894917 
H 1.9379573142 4.9352524416 4.2979156986 
H 1.4945505443 3.6326104309 3.5147284923 
O 2.7781342240 1.0149066135 1.3399241183 
H 2.3173861848 1.3215224831 0.5197840052 
O 5.3333007335 4.6114745207 1.3027712722 
H 5.2996637272 3.6223191778 1.3046201731 
O 5.3209290700 1.9200342710 1.3321314266 
H 5.7643519066 1.5740557300 0.5175897303 
O 6.5691700621 0.9947748208 3.5315888234 
H 7.4967490205 1.3360221551 3.5100696885 
H 6.1273041397 1.3343093385 2.7144486272 
O 9.1132589588 1.8991635219 3.4832485752 
H 9.1224114106 2.8885567608 3.5053910860 
H 9.5843610481 1.5994322590 4.2995320256 
O 9.1239351706 4.5918595309 3.4924835740 
H 8.1924285221 4.9249796936 3.5177742820 
H 9.5659844474 4.9363675094 4.3071119168 
H 9.9428391764 1.3368406491 2.0899436164 
H 9.9434555220 1.3375417290 0.5073979421 
O 12.9535931208 4.5787374596 1.2806469010 
H 12.0227647976 4.9132146950 1.3040368255 
H 13.3908508338 4.9176551567 2.1013320321 
O 12.9690100543 1.8851922372 1.3008501152 
H 12.9436837167 2.8748066511 1.2987981034 
H 12.0262254212 1.5842526606 1.3011958275 
O 10.4273701055 0.9922149451 1.2999579472 
O 14.1971300228 0.9984958815 3.5325059960 
H 15.1252646748 1.3397747101 3.5109337661 
H 13.7561730353 1.3362995043 2.7144923875 
O 2.7729948839 5.4880345454 1.2780014461 
H 2.7562858513 6.4773150226 1.3047226597 
H 2.2983824435 5.1823464147 2.0902026421 
O 1.4699731091 9.0797991176 3.4912859645 
H 1.9453933771 8.7832365416 4.3070724487 
H 4.3757391821 8.7719078064 1.3066662656 
O 2.7798563194 8.1821523266 1.3082576408 
H 2.2938596004 8.5218249207 2.1000398601 
H 2.2921750396 8.5200741844 0.5164183782 
O 6.5809431035 5.4698102835 3.5363704582 
H 6.5656994767 6.4594013793 3.5106002530 
H 6.1169943282 5.1645717604 2.7177074850 
H 9.9300258664 5.1659768172 2.1000920343 
H 9.9318537770 5.1592100783 0.5161640073 
O 5.3201371996 9.0671927439 1.3098644557 
O 6.5554706106 8.1583305694 3.5332218006 
H 6.1110566051 8.5033612812 2.7200189145 
H 7.4828424885 8.5014819350 3.5082488388 
O 9.0987708902 9.0649609388 3.4791604703 
H 9.5754232979 8.7668578685 4.2939061839 
H 9.9280457355 8.4998750835 2.0868676223 
O 14.1691503574 5.4733754727 3.5104915819 
H 15.1103355499 5.1674838147 3.5104339023 
H 14.2012551292 6.4629950310 3.5047277421 
O 10.4209784921 5.4961347394 1.3075775591 
O 12.9633492116 9.0681693803 1.2858884247 
H 12.0231804550 8.7628973071 1.2899713744 
O 10.4012607711 8.1949655763 1.2733813899 
H 10.3894319337 7.2060185770 1.3030938493 
O 14.1947062417 8.1600016880 3.5167414581 
H 13.7564943191 8.5035323530 2.6999211047 
H 15.1208614859 8.5075145521 3.5025171983 
H 2.7679100445 14.3992142473 1.3073212682 
H 1.4835953161 10.0684331918 3.5048518315 
O 1.5041848184 11.7824617881 3.5176288355 
H 1.9481353413 12.1182713592 2.7003451526 
H 0.5757938577 12.1226751140 3.4937331456 
O 2.7545544778 12.6948057565 1.3080743168 
H 3.6832361512 12.3548641508 1.2866704612 
H 2.3118002557 12.3535861342 0.4921054465 
O 5.2853755064 11.7711710705 1.3028861612 
H 5.7751945987 12.1082801352 0.5121714114 
H 5.7668110460 12.1124406068 2.0963756486 
O 6.5853599622 12.6685442681 3.4860260758 
H 6.5802982473 13.6574446913 3.5092977834 
H 6.1154593332 12.3680757587 4.3026389308 
H 5.3018726743 10.0563675827 1.3076444106 
H 9.1156599536 10.0539194603 3.4952786464 
O 9.1344117263 11.7627821020 3.5121104053 
H 8.2070075077 12.1041493312 3.4962621236 
H 9.5748877340 12.1116053150 2.6979075415 
H 9.9372567584 12.3703787269 0.5070646176 
O 12.9479184263 11.7578277070 1.2948939241 
H 13.3931993254 12.1066063739 2.1066866933 
H 12.0225566411 12.1064034305 1.3141631332 
O 14.2168909426 12.6733736388 3.4853023847 
H 14.2028999693 13.6624943876 3.5066481815 
H 13.7461734322 12.3709957395 4.3015872951 
H 12.9348216588 10.0576909247 1.2992683428 
O 10.4047453244 12.6739587344 1.3229242329 
H 10.3960720582 13.6638434127 1.2976311934 
O 2.7227535720 1.0198315568 5.7148847215 
H 3.6662781390 1.3197720753 5.7082149024 
O 5.2574532299 1.9107869412 5.7041621207 
O 1.4670270510 4.6256211509 7.8764903600 
H 1.4839903000 3.6358038879 7.8955704052 
H 1.9418607734 4.9282508084 8.6905656662 
O 1.5001747950 1.9337334847 7.9250046104 
H 1.9396620347 1.5831756135 7.1106477560 
H 0.5732432577 1.5904182092 7.9099568968 
O 5.2723662538 4.6061308468 5.7293448456 
H 5.2791906660 3.6166064023 5.7046842795 
H 5.7482501893 4.9070175579 4.9156095054 
H 5.7492665595 1.5796092847 4.9124302169 
H 5.7527074182 1.5801737701 6.4948328706 
O 6.5566533210 1.0032826769 7.8750297390 
H 6.1164625759 1.3390543522 8.6949842783 
H 7.4882916394 1.3354925511 7.9027439088 
O 9.1321618988 4.6179791740 7.9124753006 
H 8.1898835507 4.9187982172 7.9102008443 
H 9.1082162425 3.6287648242 7.9113993203 
O 9.0920408301 1.9163362342 7.9076978726 
H 9.5780485513 1.5817881033 7.1138319478 
H 9.5782443347 1.5699148374 8.6967097198 
O 10.3736210279 1.0327665593 5.7093630180 
O 12.9053328152 4.6180068405 5.7342343700 
H 12.9287555461 3.6285495175 5.7165354764 
H 13.3811150323 4.9198324320 4.9207251202 
H 11.3152877940 1.3375801277 5.7153383226 
O 12.9123426041 1.9262625029 5.7173290498 
H 13.3974894876 1.5871723522 4.9248533736 
H 13.3972422366 1.5835964112 6.5093566892 
O 14.2116087457 1.0250649558 7.8930804477 
H 13.7454049944 1.3287503810 8.7106764356 
O 2.7332179738 5.5340165823 5.6881568579 
H 3.6575870073 5.1832314173 5.7101033082 
H 2.2876804023 5.1869184138 6.5016278482 
O 2.7291000712 8.2258943296 5.7087674218 
H 2.7544134007 7.2363164213 5.7133404193 
H 3.6716999146 8.5272604833 5.7204846380 
O 1.4495443882 9.1092393119 7.9023082332 
H 1.9382931266 8.7701804678 8.6929605925 
H 1.9380544414 8.7748778289 7.1084956588 
O 5.2733704142 9.1082909141 5.7268222121 
O 6.5903009906 5.5169018569 7.9040318986 
H 6.1054510473 5.1689295325 7.1157097456 
H 6.1103515469 5.1720770436 8.6982190441 
H 9.9239224477 5.1894820038 6.5069356609 
H 5.7574936799 8.7685650697 6.5206574774 
H 5.7573373136 8.7621660132 4.9378649694 
O 6.5436194478 8.2145288892 7.9223544795 
H 6.5686536662 7.2252031183 7.9152616674 
H 7.4852569338 8.5174496021 7.9115449563 
O 9.0973678762 9.0860707498 7.9134215427 
H 9.5726978895 8.7825929405 7.0997688454 
O 10.3629693716 8.2224392547 5.6988088496 
H 10.3889629510 7.2326688747 5.7071611415 
O 10.3696189778 5.5348585820 5.6947067307 
H 11.2947616376 5.1858871128 5.7174318752 
O 14.1794388255 5.5229458492 7.9259998900 
H 13.7319211972 5.1806251053 7.1124159264 
H 15.1075052101 5.1818007012 7.8972986832 
H 11.3055012224 8.5235819944 5.7048319905 
O 12.9103201552 9.0989647668 5.7097941254 
H 13.3946975740 8.7592091855 6.5036109449 
H 13.3915208907 8.7540688725 4.9186428089 
O 14.1719325371 8.2135383985 7.9079377940 
H 15.1152058681 8.5152915706 7.9063222051 
H 14.1957356201 7.2233539596 7.9086512031 
H 2.7475377118 14.4043460634 5.7101846378 
O 2.7420671636 12.6962772354 5.7291328197 
H 2.3043206230 12.3595645186 4.9084095887 
H 3.6718212099 12.3585493922 5.7077863607 
O 1.4625534924 11.8049247369 7.9250231349 
H 1.9365346626 12.1085452383 7.1110658990 
H 1.4769892050 10.8153403686 7.9010972009 
O 5.2878238119 11.8045346557 5.6891920458 
H 5.7567114298 12.1156223389 6.5023694466 
H 5.3002848683 10.8157426153 5.7223437786 
O 6.5850093992 12.6836591251 7.8903752140 
H 6.5681926342 13.6733915873 7.9096798691 
H 6.1155257998 12.3821027179 8.7068817306 
H 9.9402523554 12.3557727377 4.9029917026 
H 9.9292237873 12.3622107162 6.4859649597 
O 9.1195060826 11.7885190553 7.8720404777 
H 8.1913440185 12.1300616056 7.9027387982 
H 9.5671030497 12.1197132335 8.6888386903 
H 9.1108427237 10.0748174252 7.8899949457 
H 10.4033432105 14.4183249146 5.7064459866 
H 14.2014518823 14.4094132645 7.9174991204 
O 12.9590401222 11.8073841005 5.7073902172 
H 12.0148320775 12.1055819383 5.7034955899 
H 12.9373518314 10.8189147839 5.7086552148 
O 10.4240370593 12.6938947761 5.6961570475 
O 14.1851862531 12.7034109926 7.9425075736 
H 15.1127719284 12.3595487184 7.9134794415 
H 13.7411163303 12.3659465916 7.1260081543 
O 1.5255939799 1.8805805875 12.3112123905 
H 1.4961946678 2.8705565969 12.3079791626 
H 0.5835852728 1.5765912489 12.3107575857 
H 4.3917899418 1.5839284577 10.1175597518 
O 1.5104750728 4.5685821736 12.3260996859 
H 0.5800852473 4.9046162683 12.3096413127 
H 1.9426612629 4.9124120968 11.5065317633 
O 2.7918331847 0.9954743730 10.1138473744 
H 2.3057675189 1.3378055040 9.3242429992 
H 2.3029583491 1.3309169108 10.9066531355 
O 5.2908358497 4.6190753639 10.0802003035 
H 5.7604997158 4.9187378871 10.8983031757 
H 5.3062674770 3.6297034555 10.1004018646 
O 5.3205148316 1.9223164750 10.0811466054 
H 5.7700347702 1.5926481193 10.8979544414 
O 6.5763392434 1.0041784729 12.2870482312 
H 6.1375016361 1.3426712603 13.1062769470 
H 7.5077663414 1.3355443351 12.3094696388 
O 9.1144790868 1.9039380366 12.2971959264 
H 9.5953431976 1.5623520943 11.5031707432 
H 9.6048203302 1.5686271175 13.0871570778 
O 9.1096663401 4.6045090935 12.3319109739 
H 9.5790364276 4.9188803429 11.5200075850 
H 9.1273063101 3.6163070220 12.2989049628 
O 10.3695238561 1.0075884395 10.0892125887 
O 12.9335841694 4.5951731794 10.1414400628 
H 13.3759967964 4.9350439619 9.3256569713 
H 12.0056751383 4.9379517426 10.1181657864 
O 12.9224205025 1.8928978963 10.0959350505 
H 12.9290036867 2.8813843822 10.1237727275 
H 13.3912684186 1.5885361265 10.9124881402 
H 11.3099659382 1.3149331879 10.0972411491 
O 14.2219077823 1.0280955781 12.2938257247 
H 13.7591335288 1.3335106262 13.1133381661 
O 2.7278314865 5.4873708259 10.0892349672 
H 3.6693451409 5.1859966036 10.0929613058 
H 2.7527314544 6.4765016273 10.0953268222 
O 1.4819349578 9.0772437195 12.2927013224 
H 1.9544374081 8.7687537474 13.1050772323 
O 5.2675550507 9.1159065609 10.1117309295 
O 2.7363558290 8.1833829609 10.0813717834 
H 3.6663616145 8.5207667733 10.1046279101 
H 2.2999310654 8.5208081105 10.9021096547 
O 6.5633225698 5.5000086273 12.2830419301 
H 6.1264184918 5.1602761945 13.1032488682 
H 7.4919767776 5.1598594949 12.3046792229 
H 9.9282667122 5.1857641515 9.3191934600 
H 5.7453307158 8.7686993357 10.9052164879 
H 5.7565914521 8.7730811704 9.3228730152 
O 6.5375440347 8.1983603984 12.3058757878 
H 7.4784477078 8.5045502324 12.3009109543 
H 6.5688288547 7.2095128090 12.2999916345 
O 9.0939773816 9.0674090344 12.3219041207 
H 9.5651772536 8.7716116945 11.5035414094 
H 9.9207327598 8.5291205501 9.3041987416 
O 10.3628115160 8.1896194879 10.1214272180 
O 14.2382768394 5.4955602882 12.3184456890 
H 13.7433322662 5.1650958796 11.5281764083 
H 13.7546077238 5.1595560491 13.1122811739 
O 10.3977989461 5.4935300079 10.1334811279 
H 10.3798652894 6.4825454923 10.1059423348 
O 12.8995290441 9.1059108216 10.0991207702 
H 13.3828684836 8.7703212849 9.3027389453 
H 13.3897105058 8.7600786856 10.8857315113 
H 11.2925929880 8.5271624216 10.0936347872 
O 14.1803093477 8.2017506209 12.2876052990 
H 15.1207771206 8.5071812570 12.2947224614 
H 14.2100212963 7.2132525732 12.2976949616 
H 1.4997797467 10.0659982228 12.3182807545 
H 4.3766958748 12.1201504520 10.1142000663 
O 1.5043141311 11.7806765137 12.3302501396 
H 0.5766877006 12.1209826528 12.3129312730 
H 1.9418145366 12.1219445389 11.5110264628 
O 2.7593516639 12.6770086439 10.1320298060 
H 2.2886178170 12.3730493432 9.3167987507 
H 2.7514803078 13.6666229287 10.1062817508 
O 5.3175801558 11.8149415508 10.1169804010 
H 5.2889787639 10.8260673470 10.1130191822 
O 6.5907275776 12.6790944481 12.3300356958 
H 6.1104931750 12.3787906511 11.5190001704 
H 6.5766235023 13.6682786159 12.3115091045 
H 9.1062582692 10.0563974579 12.3063539125 
O 9.1246071425 11.7680600585 12.2860725605 
H 9.5745914472 12.1145327817 13.0960647478 
H 8.1995028370 12.1171640377 12.3082387514 
H 9.9348639422 12.3533105548 10.8974694004 
H 10.4007739631 14.3913624426 10.0934511786 
H 14.2025450886 14.4119584073 12.3166945794 
O 12.9143568382 11.7984275383 10.1361536454 
H 13.3878793583 12.1021062870 9.3221052686 
H 12.9278292141 10.8087565477 10.1121163663 
O 14.2184363620 12.7175824172 12.3126061879 
H 13.7397551725 12.3675594051 13.1040508099 
H 13.7369533236 12.3697207603 11.5218996535 
O 10.3822164560 12.6902534207 10.0822608193 
H 11.3108109936 12.3476372099 10.1116596884 
H 4.4069244341 4.9099027442 14.5218422943 
O 2.8019158081 1.0213431854 14.5323802599 
H 2.3248798233 1.3256611359 13.7215488003 
H 4.4110958661 1.5819756912 14.5162697087 
O 1.5092825229 4.5805193255 16.6887469690 
H 0.5809622453 4.9223094228 16.7125079580 
H 1.9520281972 4.9259899193 17.5031159886 
O 1.4980381446 1.8830821642 16.7396089929 
H 1.9715367974 1.5807112854 15.9257830394 
H 1.5053599108 2.8723844500 16.7119882971 
O 5.3385364856 4.5776374464 14.4974041032 
H 5.7790330010 4.9203487741 15.3143567174 
O 5.3527567495 1.8866892362 14.5199557183 
H 5.3252007387 2.8761478957 14.5221131869 
O 6.5992902388 1.0146904772 16.7521563756 
H 6.1308726033 1.3198325462 15.9359637340 
H 9.9605140370 1.3286050861 15.3094142459 
O 9.1384283988 4.5775860241 16.7342524413 
H 8.2106263365 4.9204151347 16.7137762547 
H 9.5804101937 4.9210469056 15.9180553523 
O 9.1619414288 1.8884665554 16.7214868113 
H 9.1337037249 2.8783951247 16.7178776236 
H 8.2218157962 1.5834583424 16.7242721249 
O 10.4042722620 0.9850715265 14.4953732529 
O 12.9589897396 4.5673264023 14.5102468253 
H 13.4029552016 4.9153231229 15.3231332086 
H 12.0314258412 4.9088639205 14.5323781451 
H 11.3338560897 1.3236825743 14.5203399825 
O 12.9416953666 1.8769779007 14.5065632950 
H 12.9531600824 2.8667965582 14.5380865358 
H 13.4099403123 1.5664606461 15.3207173481 
O 14.2082837199 0.9624709284 16.7061826021 
H 15.1336773181 1.3091797326 16.7279804226 
H 13.7609569899 1.3139262332 17.5162744694 
O 2.8043845439 5.4909393447 14.5081897795 
H 2.3152599573 5.1597446498 15.3017633106 
H 2.3167318043 5.1530602958 13.7176487688 
O 2.7447673091 8.1955213960 14.5148423929 
H 3.6848618247 8.5042358692 14.5159067258 
H 2.7760382073 7.2071071402 14.5079793248 
O 1.4996101684 9.0967020864 16.7291329944 
H 1.9433961048 8.7517138211 15.9155619526 
H 0.5696409507 8.7592795616 16.7055510860 
O 5.2934461248 9.0725895813 14.5403488693 
O 6.5995147957 5.4824162718 16.6968245304 
H 6.5787516251 6.4723004426 16.7197681509 
H 6.1242538334 5.1762802420 17.5088490406 
H 9.9376736596 5.1644932401 13.7257634098 
H 5.7593715742 8.7638812093 13.7242928005 
O 6.5881649817 8.1709092948 16.7265913453 
H 6.1050309499 8.5115242080 17.5204676321 
H 6.1050475119 8.5157938666 15.9353692735 
H 9.9198843091 8.5018684978 15.2909291467 
H 9.9191048300 8.5020522442 13.7063666226 
O 9.1334187590 9.0869703860 16.6863796300 
H 9.5766829076 8.7462171701 17.5026397806 
H 8.2033171716 8.7535971247 16.7166197164 
O 10.4085075718 5.4711897433 14.5397193406 
H 10.3925081746 6.4607078643 14.5096189870 
O 14.2312271317 5.4786067352 16.6991414956 
H 13.7580759918 5.1755071304 17.5143219506 
H 14.2152528825 6.4684331193 16.7223088107 
O 10.4055824346 8.1637137260 14.4984341029 
O 12.9386034257 9.0894937878 14.5200463961 
H 13.3804771746 8.7537878476 13.7023898537 
H 12.0104216406 8.7493992237 14.4972099107 
O 14.2278664630 8.1738134169 16.7091832377 
H 13.7400891125 8.5161971257 17.5003193603 
H 13.7406367584 8.5044678999 15.9150419187 
H 2.7824735756 14.4055931936 14.5121413782 
H 4.4024729145 12.1093724126 14.5055170612 
O 2.8027584102 12.7040386415 14.5136791593 
H 2.3102251116 12.3583579387 15.2990310893 
H 2.3188762284 12.3717385761 13.7180342074 
O 1.5221837128 11.7911844750 16.6961660143 
H 0.5789395785 12.0887391352 16.6991150033 
H 1.4963537493 10.8016736078 16.6993265914 
H 6.5817646661 14.3990212232 16.7267541036 
O 5.3300327155 11.7665894123 14.5326027810 
H 5.7751069010 12.1079099039 13.7179962964 
H 5.3124853716 10.0618903192 14.5139167687 
O 6.5757024456 12.6928296676 16.7367074984 
H 7.5041149892 12.3523930472 16.7051590748 
H 6.1295523661 12.3562974000 15.9204085173 
O 9.1107751105 11.7944817095 16.7173242898 
H 9.1268579102 10.8059525368 16.6959061300 
H 9.5785248021 12.0987696479 15.9008452429 
O 10.3701577527 12.6705727892 14.4934153834 
O 12.9237406079 11.7922011589 14.4875976956 
H 12.9335516032 10.8035560571 14.5077864575 
H 13.3892356718 12.0923153231 15.3080005836 
H 10.4049709823 13.6600875548 14.5042377677 
H 11.3092832967 12.3598941682 14.4991206144 
O 14.2103855631 12.6446401261 16.6908206510 
H 14.2016276549 13.6337734479 16.7230484098 
H 13.7468331449 12.3372557558 17.5088362567 

