&CONTROL
   calculation      = 'vc-relax'
   tstress          = .true.
   tprnfor          = .true.
   outdir           = './'
   pseudo_dir       = '/global/homes/p/ppiaggi/QuantumEspresso/pseudos'
/
&SYSTEM
   ecutwfc          = 150
   input_dft        = 'SCAN'
   ntyp             = 2
   nat              = 384
   ibrav            = 0
/
&ELECTRONS
   mixing_beta      = 0.5
   startingpot      = 'atomic'
   startingwfc      = 'atomic+random'
/
&IONS
/
&CELL
/

ATOMIC_SPECIES
O 15.999400004115753 O_ONCV_PBE_sr.upf
H 1.0079400002592869 H_ONCV_PBE_sr.upf

K_POINTS gamma

CELL_PARAMETERS angstrom
15.25730524768575 0.00000000000000 0.00000000000000
0.00000000000000 14.38163734036353 0.00000000000000
0.00000000000000 0.00000000000000 17.61266581127966

ATOMIC_POSITIONS angstrom
O 1.4734768175 1.8941133027 3.5389481401 
H 1.4817296491 2.8836164217 3.5205765332 
H 1.9464478780 1.5976143027 2.7228804699 
O 5.2681668613 4.5780157737 1.3146083702 
H 4.3862916557 1.5791185465 1.3056047432 
O 1.4456337778 4.5877558057 3.5168210845 
H 1.9285200303 4.9216948394 2.7208567542 
H 1.9396967230 4.9284996244 4.3040183980 
O 2.7764126050 1.0361504051 1.3326120713 
H 2.3086485674 1.3375513317 0.5147970814 
H 5.7568681096 4.9245356441 0.5273130903 
H 5.7466994195 4.9191437191 2.1101519700 
O 5.3296072872 1.8790896143 1.3050933614 
H 5.3038189391 2.8678478734 1.3057547047 
O 6.5648059221 0.9871272575 3.5291947231 
H 6.1202044046 1.3226299230 2.7115592810 
H 7.4920637420 1.3289196283 3.5000711238 
O 9.0958242579 1.9237915695 3.4990817073 
H 9.5803709787 1.5838874558 2.7077332915 
H 9.5802266862 1.5774179443 4.2890025832 
O 9.0845683067 4.6155785507 3.5247918500 
H 9.1100836192 3.6264998748 3.4996647844 
H 9.5632457809 4.9262432375 2.7163092270 
H 9.9329047436 1.3142174163 0.5006744266 
O 12.9108657534 4.6233882901 1.3272257451 
H 12.9282061901 3.6346880011 1.3017049004 
H 13.3841966446 4.9302234048 0.5140839520 
O 12.9449864905 1.9248558109 1.2754716695 
H 13.3855658652 1.5780350379 2.0899280307 
H 12.0190515723 1.5774350455 1.2933242127 
O 10.4079725389 1.0140557173 1.3138535411 
O 14.1732441300 1.0165508387 3.5007521566 
H 15.1123510336 1.3261178555 3.5082575348 
O 2.7305298167 5.5087720712 1.3268714004 
H 3.6586994201 5.1692916862 1.3088720232 
H 2.2921028066 5.1632360630 0.5103733189 
O 1.5012845117 9.0935759922 3.4896994321 
H 1.9470214162 8.7551495437 4.3042997079 
H 0.5715520781 8.7536043208 3.5204249877 
H 4.3890609128 8.7852914946 1.3013935716 
O 2.7687222760 8.2182414351 1.2866572440 
H 2.7506143865 7.2300907517 1.3055286578 
H 2.2983780065 8.5180111308 2.1043811912 
O 6.5300285033 5.4775413801 3.5207837139 
H 7.4712104165 5.1719401590 3.5099544135 
H 6.5612533078 6.4664312071 3.5137083127 
O 10.3572511590 5.4876498135 1.3165875403 
O 5.3302403207 9.0889448269 1.2994304059 
O 6.5592543321 8.1730424138 3.5288813642 
H 6.1191675436 8.5190342189 2.7142759981 
H 7.4868833118 8.5138058885 3.5062620790 
O 9.0955810114 9.1117894347 3.5051006112 
H 9.5785254902 8.7732212536 4.2978379786 
H 9.5863673752 8.7725133345 2.7159349088 
H 9.9498212269 8.5199790183 0.5137188411 
O 10.3891568659 8.1833171290 1.3345351655 
O 14.1713299020 5.5135743683 3.5314090581 
H 13.7326859038 5.1774230765 2.7108800953 
H 15.1000810211 5.1743149356 3.5105623426 
H 10.3883447343 6.4767783834 1.3139562390 
H 11.2988368782 5.1825308040 1.3112130513 
O 12.9323209062 9.1003801541 1.2983532139 
H 13.4174270200 8.7590351041 0.5072893353 
H 13.4187534215 8.7662683492 2.0915952916 
H 11.3198422926 8.5140852880 1.3059698564 
O 14.2278584462 8.2107741178 3.4933143329 
H 14.2030592524 7.2217598181 3.5141192347 
H 13.7485173653 8.5172912988 4.3035650664 
H 2.7581354417 14.4283284493 1.3098787072 
H 4.3857286645 12.1262797936 1.3069332404 
O 1.4694859785 11.7928714774 3.4786183435 
H 1.4837187614 10.8039558434 3.4998918190 
H 1.9394124125 12.0914941025 4.2956366756 
O 2.7850010391 12.7257323340 1.3086072461 
H 2.2975894521 12.3742769172 2.0934400571 
H 2.3029718840 12.3916903953 0.5122956890 
O 5.3124001437 11.7820942853 1.2821693081 
H 5.7564099341 12.1201097354 2.0985512556 
O 6.5472835081 12.6759765714 3.5070371233 
H 7.4884782170 12.3708805081 3.5020931610 
H 6.5769570586 13.6653513532 3.5100641576 
H 5.3007886212 10.0782757527 1.3022205339 
O 9.1012777290 11.8061238126 3.4709900540 
H 9.1173363979 10.8170364409 3.4985473042 
H 9.5765890039 12.1113731301 4.2838593626 
H 9.9265126974 12.3562515389 2.0870338253 
H 10.3898630445 14.4066208743 1.2960512448 
H 14.2071917193 14.4093135473 3.4940200195 
O 12.9057286018 11.7991712862 1.2786559713 
H 13.3825937938 12.1046177077 2.0910177335 
H 12.9290160357 10.8102347299 1.3000237557 
O 14.1893012106 12.7009727012 3.4608524691 
H 15.1167719290 12.3576796178 3.4899575417 
H 13.7449581763 12.3622575616 4.2768486828 
O 10.3722867821 12.6968598785 1.2718522506 
H 11.2994591528 12.3515405008 1.2982196637 
O 2.7810199662 0.9735749907 5.7169772520 
H 2.3007978266 1.3198374640 4.9251153219 
H 2.2958282964 1.3192443140 6.5059900145 
H 4.3925052383 1.5645108757 5.7174159332 
O 1.4439656022 4.5818853199 7.8870782461 
H 1.9307648279 4.9109582962 8.6818105353 
H 1.9367587190 4.9197491933 7.0983917324 
O 1.5034635358 1.8851366845 7.9069921000 
H 0.5626316362 1.5794994242 7.9091731145 
H 1.4704631437 2.8747142324 7.8977600328 
O 5.2891157856 4.6017633200 5.7475700311 
H 5.3100768243 3.6133127879 5.7229761553 
H 5.7567322585 4.9092529755 4.9312418661 
O 5.3223588291 1.8990417844 5.7439468051 
H 5.7607591987 1.5668266991 4.9224854684 
O 6.6108732981 0.9833707261 7.9280493410 
H 6.1215449226 1.3180688485 7.1365188687 
H 6.1223460063 1.3197765342 8.7200345422 
H 9.9307605419 1.3051414203 6.4929483433 
O 9.0987503133 4.6058014026 7.9225812702 
H 9.5656734634 4.9060161984 7.1019768177 
H 9.1149337120 3.6171295381 7.9028095462 
O 9.1400179460 1.8943777212 7.8867419169 
H 8.2092920035 1.5606481003 7.9230430462 
H 9.5857209732 1.5645965866 8.7048876204 
O 10.3709457900 0.9719789320 5.6726015949 
O 12.8815721446 4.5787275753 5.7016540409 
H 13.3695627958 4.9191840761 6.4921413738 
H 13.3668625343 4.9167501884 4.9087169948 
H 11.2978541557 1.3166896197 5.6992326886 
O 12.9027024997 1.8848169484 5.7224976720 
H 12.9145194313 2.8742287193 5.6985471672 
H 13.3777614850 1.5818249311 4.9098676206 
O 14.2022452044 1.0150477403 7.9261208446 
H 13.7322653192 1.3204793733 7.1115825010 
O 2.7279242096 5.4736530658 5.7035225388 
H 3.6674101548 5.1648922341 5.7102333234 
H 2.7627355264 6.4631654687 5.7099763491 
O 2.7547795722 8.1625965281 5.7018190905 
H 2.3064615378 8.5043094024 6.5141177925 
H 3.6803647916 8.5109127049 5.7251702160 
O 1.5040074383 9.0664744866 7.9198248308 
H 0.5620890827 8.7665654163 7.9145006394 
O 5.2903693198 9.0691518160 5.7355517005 
O 6.5636438201 5.5089730326 7.9394844299 
H 6.1167907742 5.1649466131 7.1265595157 
H 7.4913818432 5.1667906864 7.9086086447 
H 9.9084933992 5.1647265150 4.9119016038 
H 5.7625234319 8.7624221010 4.9223417726 
O 6.5776581526 8.2004015791 7.9502036234 
H 6.5663130167 7.2108284599 7.9231076939 
H 6.1096571721 8.5045016077 7.1339380181 
H 9.9293087341 8.5144047812 6.5097003400 
O 9.1407623386 9.0779365710 7.9128438860 
H 8.2016165185 8.7702950287 7.9209553222 
O 10.3529783292 5.5014015672 5.7291904614 
H 11.2818240425 5.1605408336 5.7010013623 
O 14.1669101081 5.5152417459 7.8712588556 
H 13.7321417309 5.1742613945 8.6920835684 
H 15.0966334494 5.1795312062 7.8902892499 
O 10.4003977668 8.2070372487 5.6958152446 
H 10.3770853062 7.2187742730 5.7175220536 
O 12.9519809350 9.0783161458 5.6925217230 
H 12.0120802406 8.7697703528 5.7030628666 
O 14.1986714098 8.2120160755 7.9281904702 
H 13.7311230748 8.5207658191 7.1131832793 
H 14.1760391821 7.2228042468 7.8994437687 
O 2.7374749712 12.6510041537 5.7101634293 
H 3.6802339499 12.3510855747 5.7099253131 
H 2.7621415517 13.6397728282 5.7158327087 
O 1.4588643988 11.7615905657 7.9060598692 
H 1.9457995247 12.0959566654 7.1124735687 
H 1.9488409115 12.1060903263 8.6928952116 
H 1.4809651413 10.0556766431 7.9144247218 
O 5.2861397780 11.7669742084 5.7038040214 
H 5.7649315525 12.1131180188 4.9096899467 
H 5.7728622736 12.1148767740 6.4913829993 
H 5.3094812088 10.0579969984 5.7091329587 
O 6.6048847212 12.6750319089 7.8784988204 
H 6.1387486443 12.3673849275 8.6948755956 
H 6.5939705426 13.6647656024 7.9112308492 
H 9.9355956430 12.3573395249 6.4863077606 
O 9.1376756978 11.7665387604 7.8703683800 
H 8.2114980457 12.1148231647 7.8927381367 
H 9.5801062393 12.1122249277 8.6859822056 
H 9.1118261182 10.0674896736 7.9066751868 
H 14.1947756416 14.4079007498 7.8979906790 
O 12.9393197726 11.7684106981 5.6662108898 
H 12.0102818936 12.1085210749 5.6940291397 
H 13.3827021780 12.1061489706 6.4826711731 
O 10.4039417386 12.6609976876 5.6688421954 
H 10.3894453942 13.6505461966 5.6944826216 
H 12.9209990224 10.0676970478 5.6929220585 
O 14.1892136561 12.6980320804 7.8769653866 
H 15.1168053738 12.3560361627 7.9029504873 
H 13.7448632935 12.3576181691 8.6917854075 
O 1.5292714180 1.8893702919 12.2895830379 
H 0.5885481812 1.5827921430 12.2969719999 
H 1.4955840588 2.8785033249 12.2961839227 
H 4.3894056414 1.5788277949 10.1117863836 
O 1.5022677763 4.5822131166 12.2911288354 
H 0.5761338718 4.9297534912 12.3162949077 
H 1.9488552249 4.9238812987 13.1048326779 
O 2.7969635479 0.9936640051 10.0977507206 
H 2.3123425651 1.3365595580 10.8901931162 
H 2.3086592758 1.3348517435 9.3083537471 
O 5.2803478496 4.5811161246 10.1169316319 
H 5.7683737469 4.9232859905 9.3272722324 
H 5.7598939769 4.9224607012 10.9115738389 
O 5.3337958799 1.8772218899 10.1195217755 
H 5.3098418381 2.8663750509 10.1178429360 
O 6.6176705779 0.9939832769 12.3090585184 
H 6.1328707402 1.3342088023 13.1006482798 
H 6.1244952949 1.3296526557 11.5191847812 
O 9.1552031858 1.8853568714 12.3284326049 
H 9.1273223253 2.8743993714 12.3208218533 
H 8.2121050361 1.5839230328 12.3209689609 
O 9.1316936343 4.5842685578 12.3259880602 
H 8.2017133533 4.9192349756 12.3059484978 
H 9.5677555651 4.9236840396 11.5058617464 
H 9.9449530264 1.3189167803 10.9178815740 
O 10.3887600329 0.9807996775 10.1018025756 
O 12.9181531987 4.6200594782 10.0777337655 
H 12.9362364220 3.6305850790 10.1048730727 
H 13.3922277718 4.9259808058 10.8888018711 
O 12.9187666115 1.9301098166 10.1177982459 
H 13.4041769169 1.5881371017 10.9085983078 
H 13.3978933051 1.5818514457 9.3265461848 
H 11.3143523644 1.3268052338 10.1265231625 
O 14.2313394324 1.0187722068 12.2930082932 
H 13.7611053302 1.3160266943 13.1111749052 
O 2.7401528511 5.4885488589 10.0760737982 
H 3.6714138634 5.1573660265 10.1044951294 
H 2.3009290612 5.1562753758 10.8974445400 
O 1.5208719878 9.1027121435 12.3276294144 
H 1.9593946073 8.7565719608 11.5115337795 
H 0.5896567134 8.7708579421 12.3061877412 
H 4.3930078970 8.7616120661 10.1199165814 
O 2.7807202624 8.1954008671 10.1278116550 
H 2.3040068411 8.5007565792 9.3158445482 
H 2.7630510200 7.2068819770 10.1007438629 
O 6.5834130051 5.4789415552 12.2981740278 
H 6.1148442478 5.1773722422 13.1156869475 
H 6.5762796973 6.4676188085 12.3240700385 
H 9.9260208171 5.1700332432 9.2997705478 
O 5.3193732203 9.1057090193 10.1469247296 
H 5.7643321223 8.7590294689 9.3337138473 
O 6.5717726037 8.1793233338 12.3482870626 
H 6.1254387904 8.5167086502 11.5324491797 
H 7.5011486813 8.5159194615 12.3167504122 
O 9.1139289630 9.0671326061 12.3340391254 
H 9.5819543294 8.7576461123 11.5192904502 
H 9.9381034226 8.5134207252 9.3169719002 
O 14.2258813017 5.4890396295 12.2893913543 
H 13.7559685102 5.1757191189 13.1011845091 
H 14.2120873396 6.4774308280 12.3261918880 
O 10.3695681684 5.5153409005 10.1136313514 
H 11.2971148224 5.1727226365 10.0903731977 
O 12.9422585766 9.1019901038 10.1366641062 
H 12.0130956637 8.7616146230 10.1142273341 
H 13.3803633358 8.7620291431 9.3173815941 
O 10.4077831689 8.2026831408 10.1301724488 
H 10.3916787823 7.2129966272 10.0979547825 
O 14.2369509756 8.1900185415 12.3234322144 
H 13.7525512427 8.5323841822 13.1152382700 
H 13.7461197868 8.5230137469 11.5320470234 
O 1.4896916191 11.7954777885 12.3195505108 
H 1.9598354173 12.1015984464 11.5055446578 
H 1.5123928819 10.8058491401 12.2964510511 
O 2.7514355829 12.6735500625 10.0891854694 
H 2.7777610058 13.6624968318 10.0922587406 
H 3.6928195005 12.3712407981 10.0913102269 
O 5.3143303213 11.8052184070 10.0817598995 
H 5.3198131337 10.8166364522 10.1156003194 
H 5.7819054376 12.1136565871 10.8964481368 
O 6.6105910084 12.6812787687 12.2865932325 
H 6.1402673619 12.3756322147 13.1013216036 
H 6.5965838751 13.6705815857 12.3130071925 
H 9.1287033958 10.0555898715 12.3021573019 
O 9.1447968174 11.7695218545 12.2713234409 
H 8.2186213298 12.1162798256 12.2960383853 
H 9.5877688545 12.1157281946 13.0855447643 
H 9.9333007059 12.3577844513 10.8828003366 
H 14.2220140122 14.4116985567 12.3101162796 
O 12.9614818628 11.7964535437 10.1048840980 
H 12.0202020223 12.0992898887 10.1009722587 
H 12.9350130346 10.8072257751 10.1100993095 
O 14.2122606823 12.6976490312 12.3273312808 
H 13.7631029126 12.3576608469 11.5151154895 
H 15.1377996384 12.3502673451 12.2993896877 
O 10.4020970162 12.6634937102 10.0662331471 
H 10.3911047828 13.6524788958 10.0982147735 
O 2.7745892494 1.0142058586 14.5281664192 
H 2.3106200161 1.3204049477 13.7108182599 
H 4.3958618223 1.5842343999 14.5136960369 
O 1.4774006007 4.6044751097 16.7380625705 
H 1.9466209903 4.9157927674 15.9254931102 
H 1.4966471742 3.6153291762 16.7060451971 
O 1.5094761993 1.9131453457 16.7285292003 
H 0.5825676856 1.5680386739 16.7095431350 
H 1.9524148066 1.5656597021 15.9146753526 
O 5.2937698737 4.6198510816 14.5019270263 
H 5.7601798802 4.9266191717 15.3175704436 
H 5.3092869913 3.6305795860 14.5287063663 
O 5.3217708513 1.9294870333 14.4953004455 
H 5.7634892761 1.5761770569 15.3066707013 
O 6.5878404453 1.0063367500 16.6841566657 
H 6.1190462412 1.3094921040 17.5001122787 
H 9.9378013188 1.3266137036 15.3066180161 
H 9.9368674884 1.3332518916 13.7240738534 
O 9.0871590917 4.5925849015 16.7284344344 
H 9.5730880698 4.9303534708 15.9365091656 
H 9.5743074987 4.9332468512 17.5193109092 
O 9.1405617006 1.8833275576 16.7048472428 
H 8.2005186777 1.5756028065 16.7008880121 
H 9.1106265252 2.8712725728 16.7123681000 
O 12.9262838125 4.6022586695 14.4885275389 
H 13.3910300450 4.9096594228 15.3055493104 
H 12.9483192730 3.6134786803 14.5130780477 
O 10.4240047370 0.9886143063 14.5141139391 
O 12.9619027367 1.9041364170 14.4919326627 
H 12.0318473019 1.5675723454 14.5193512636 
H 13.4023909237 1.5667052761 15.3109783009 
O 14.2247027346 1.0161057724 16.6999046464 
H 13.7483458872 1.3230102091 17.5112384178 
O 2.7428411344 5.4842886198 14.5105915134 
H 3.6847863491 5.1818065470 14.5155458031 
H 2.7683756826 6.4730674569 14.5149063218 
O 2.7995353667 8.1836389918 14.5143549406 
H 2.3165311338 8.5297193218 15.3045217495 
H 2.3163334153 8.5218684473 13.7205595604 
H 4.4049924209 8.7699244119 14.5191468631 
O 1.4968405481 9.0934224607 16.6917984430 
H 1.9594642441 8.7919382376 17.5126383452 
O 6.5501189351 5.4863370710 16.7414524290 
H 6.5780335921 6.4754438914 16.7443962637 
H 7.4925697135 5.1847718444 16.7391605835 
H 9.9408109364 5.1687945456 13.7184352895 
O 5.3350062773 9.1042512897 14.5455315433 
H 5.7776396642 8.7650932680 13.7283832045 
O 6.6144026532 8.1887606039 16.7352555288 
H 6.1338837851 8.5210654195 15.9373204395 
H 6.1213564785 8.5349371723 17.5204284711 
H 9.9384296046 8.5069265878 13.7299077806 
O 9.1523699105 9.1036309521 16.7460299210 
H 8.2222566635 8.7684555501 16.7267532364 
H 9.5894891792 8.7602128382 15.9274283469 
O 10.3845467838 5.5060690849 14.5346004275 
H 11.3110312485 5.1613032628 14.5106514704 
O 14.1744394888 5.4793724357 16.7218186680 
H 14.2117011117 6.4684066155 16.7096930927 
H 15.1128281632 5.1683249589 16.7195386253 
O 10.4068417926 8.2039699661 14.5465746599 
H 10.3966015442 7.2151886175 14.5189161695 
O 12.9657720818 9.0891630089 14.5219768223 
H 12.0266203222 8.7805421657 14.5187932347 
O 14.2119660995 8.1681834203 16.7232025318 
H 15.1368361700 8.5154731131 16.7045254633 
H 13.7666201466 8.5224764719 15.9142614657 
H 2.7611259395 14.4063835349 14.5001239450 
O 2.7512824819 12.7037141105 14.5158832651 
H 2.3108063720 12.3572146648 13.7003818758 
H 3.6800613501 12.3653254566 14.4939359605 
O 1.5075212642 11.8026532287 16.7351396552 
H 0.5757182153 12.1301158753 16.7086044319 
H 1.9450245882 12.1321864148 15.9124681394 
H 1.5031467557 10.0815397662 16.7163454556 
H 6.5733407695 14.3986543330 16.7075545044 
O 5.3042503507 11.8099112070 14.4874316765 
H 5.3181231119 10.8213587093 14.5091471742 
H 5.7744874208 12.1098879915 15.3054839290 
O 6.5661754660 12.6938298503 16.6824294206 
H 6.1220454454 12.3582469593 17.4998139579 
H 7.4961430355 12.3551277903 16.7123627474 
H 9.9288024502 12.3771187333 15.2890804589 
O 9.1061379698 11.8098071406 16.6860009499 
H 9.1253003163 10.8211370223 16.7105542339 
H 9.5753760168 12.1126714223 17.5035343920 
H 14.2025100503 14.4082164624 16.7230773315 
O 12.9426541433 11.7842597496 14.5250367857 
H 12.0147292273 12.1253627069 14.4938450872 
H 13.3923502003 12.1206988366 13.7110732311 
O 10.3987771279 12.6810154322 14.4739783848 
H 10.3881470896 13.6709679071 14.5005038984 
H 12.9324931337 10.0781486980 14.5118566916 
O 14.2171877221 12.7033929306 16.7135663987 
H 13.7329889695 12.3668513974 15.9195744263 
H 13.7298112716 12.3612387886 17.5033259268 

