&CONTROL
   calculation      = 'vc-relax'
   tstress          = .true.
   tprnfor          = .true.
   outdir           = './'
   pseudo_dir       = '/global/homes/p/ppiaggi/QuantumEspresso/pseudos'
/
&SYSTEM
   ecutwfc          = 150
   input_dft        = 'SCAN'
   ntyp             = 2
   nat              = 384
   ibrav            = 0
/
&ELECTRONS
   mixing_beta      = 0.5
   startingpot      = 'atomic'
   startingwfc      = 'atomic+random'
/
&IONS
/
&CELL
/

ATOMIC_SPECIES
O 15.999400004115753 O_ONCV_PBE_sr.upf
H 1.0079400002592869 H_ONCV_PBE_sr.upf

K_POINTS gamma

CELL_PARAMETERS angstrom
15.25126262457666 0.00000000000000 0.00000000000000
0.00000000000000 14.37847612500364 0.00000000000000
0.00000000000000 0.00000000000000 17.61700378718564

ATOMIC_POSITIONS angstrom
O 1.4706516826 1.8873051647 3.5301657591 
H 1.9447237079 1.5893676148 2.7140210901 
H 1.4878988950 2.8769552011 3.5117983648 
H 4.3798751563 4.9173104105 1.3019128530 
O 1.4741951766 4.5798992184 3.5128298348 
H 1.9555968856 4.9255634664 2.7200591368 
H 1.9582306957 4.9206985481 4.3046360420 
O 2.7423465696 1.0020140660 1.3313292289 
H 3.6748990921 1.3312618210 1.3002036856 
H 2.3027187674 1.3393989999 0.5125973879 
O 5.2777218264 1.9063317945 1.2894115150 
O 5.3207036585 4.6114604494 1.3012664473 
H 5.2911168434 3.6232554424 1.2923624566 
H 5.7572129265 1.5694482637 2.0850693415 
H 5.7685356836 1.5624721400 0.5023568196 
O 6.5537519168 0.9820728371 3.4873993754 
H 7.4835719717 1.3175121525 3.5083918023 
H 6.1155164035 1.3261895535 4.3056710508 
O 9.1052125936 1.8812865639 3.5213849161 
H 9.1135227723 2.8699365748 3.4958185940 
H 9.5745914144 1.5781099026 2.7044564262 
O 9.1297675664 4.5830983277 3.4662770578 
H 9.5760255071 4.9229049645 4.2809839059 
H 8.2023863173 4.9257316120 3.4926154094 
H 9.9355883356 1.3288958981 0.5099488853 
O 12.9397491921 4.5784869658 1.2695528028 
H 12.0115206731 4.9211600701 1.2975438919 
H 13.3792299993 4.9079612170 2.0914427381 
O 12.9613747557 1.8844206614 1.2947070607 
H 12.9290725354 2.8737464499 1.2913723387 
H 12.0210693923 1.5790887543 1.2987998846 
O 10.3971159108 1.0196445324 1.3273274622 
O 14.1989631369 0.9714061424 3.5244845235 
H 15.1245379371 1.3224607768 3.5030000228 
H 13.7550412023 1.3160587692 2.7117006347 
O 2.7629512736 5.4779237567 1.3307328774 
H 2.2978434814 5.1689156117 0.5144335367 
H 2.7580686282 6.4677709430 1.2936635929 
O 1.5094369656 9.0852548411 3.5236329409 
H 1.9509804424 8.7491243679 2.7059425824 
H 0.5798527408 8.7474478965 3.4957429468 
O 2.7536013152 8.1603235464 1.3014025686 
H 2.3078752838 8.5105277072 0.4912480044 
H 3.6794364362 8.5084373795 1.2792977509 
O 5.2824455794 9.0806857346 1.2622382762 
O 6.5859622692 5.4825529010 3.5228981717 
H 6.5697276468 6.4715227439 3.4930884182 
H 6.1120995249 5.1751144079 2.7114369221 
H 9.9332338786 5.1781448146 2.0883521369 
H 5.7527213084 8.7805193855 2.0795174693 
O 6.5520534212 8.1816366129 3.4568930118 
H 7.4798746252 8.5240329227 3.4806657864 
H 6.1155975698 8.5189486002 4.2780196997 
O 9.0904222791 9.0864295103 3.4672644711 
H 9.5648745526 8.7761755790 4.2781799573 
H 9.9391435982 8.5156056984 0.4994935988 
H 9.9287853703 8.5251517791 2.0825960065 
O 14.1800016065 5.4920901602 3.4916797404 
H 13.7399095861 5.1549404366 4.3111861516 
H 15.1093161287 5.1570820196 3.5161633540 
O 10.4120206694 5.4816392808 1.2765858007 
H 10.3938190149 6.4709485294 1.3002254200 
O 12.9625582311 9.0959413639 1.3249047427 
H 12.0328907702 8.7602607105 1.2986159148 
H 13.4031549792 8.7610828476 0.5037141192 
O 10.4204284142 8.1810104458 1.2969633344 
O 14.2233479939 8.2002034649 3.5215500016 
H 13.7547779404 8.4999292112 2.7020399249 
H 14.2011782521 7.2114368797 3.5055317275 
H 4.3762769679 12.1179226260 1.2929952568 
O 1.4956159729 11.7877605790 3.4905968282 
H 1.5072205555 10.7991771618 3.5148026237 
H 1.9618118105 12.0936324203 4.3076161074 
O 2.7601542856 12.6764664342 1.2807677655 
H 2.7466905003 13.6651618728 1.3123490432 
H 2.3003719129 12.3651094521 2.0998548591 
O 5.3027611253 11.7739020147 1.2687348670 
H 5.7449339859 12.1113773931 2.0868615685 
O 6.5330885712 12.6689895956 3.4960227572 
H 7.4767208363 12.3715279472 3.5025448186 
H 6.5555707778 13.6586258500 3.5017037283 
H 5.2895220904 10.0701919710 1.2855049551 
H 9.0993427189 10.0751606782 3.5023820610 
O 9.0734222701 11.7858918373 3.5100993284 
H 9.5658366295 12.1197581770 4.3008677156 
H 9.5622451115 12.1225906571 2.7195424145 
H 9.9387566358 12.3584339101 0.5046364281 
H 10.3848543490 14.4087567102 1.2936111701 
O 12.9185001062 11.8008717555 1.2949453610 
H 13.3933395504 12.1007654768 2.1095222115 
H 12.9398108959 10.8123236284 1.3090563972 
O 14.1835660800 12.6626557573 3.5101469142 
H 14.2182284854 13.6521661848 3.5082469423 
H 15.1217723741 12.3525728462 3.5123185584 
O 10.3747964885 12.7100830821 1.3201501609 
H 11.3009361645 12.3645828519 1.3080422886 
H 4.4000457672 4.9143348044 5.7100069025 
O 2.7390325501 0.9821256583 5.7242955050 
H 3.6662293285 1.3222580343 5.6989296808 
H 2.2928018181 1.3265135491 4.9113374085 
O 1.5075880910 4.6120675432 7.9196442352 
H 0.5683334962 4.9195181573 7.9235591912 
H 1.4757588769 3.6221562468 7.9221513434 
O 1.5003604403 1.9223032269 7.9419786694 
H 0.5728761233 1.5758412482 7.9188722881 
H 1.9412101742 1.5846750919 7.1242027473 
O 5.2921545351 1.8791507623 5.6802951606 
O 5.3287496885 4.5761212894 5.7274481802 
H 5.7653919309 4.9218806813 4.9102616317 
H 5.3119988881 2.8684308355 5.7019504014 
H 5.7649651031 1.5749721495 6.4937941133 
O 6.5566761524 1.0116377601 7.9042023982 
H 7.4967711038 1.3189340957 7.8985814954 
H 9.9346250065 1.3266351768 4.9058283880 
H 9.9327765031 1.3342657492 6.4889146057 
O 9.1335921875 4.5918829768 7.8699565426 
H 9.5770959029 4.9221746071 8.6904866173 
H 8.2040675208 4.9291852050 7.9026333134 
O 9.1125322142 1.8958853872 7.8682867212 
H 9.1191126904 2.8855412444 7.8855399505 
H 9.5822302502 1.6034688197 8.6886483777 
O 12.9249989734 4.6031234372 5.6948770324 
H 12.9436600524 3.6146370696 5.7207203846 
H 13.3847717919 4.9127009977 6.5143499907 
O 10.4157127189 0.9842482406 5.6992663752 
O 12.9612277961 1.8963673753 5.7371496555 
H 13.4026229771 1.5595257121 4.9183660376 
H 12.0310215240 1.5636202517 5.7060202677 
O 14.2279010829 1.0177178784 7.9451815443 
H 13.7589989645 1.3141083269 7.1259515791 
O 2.7807771617 5.4773692303 5.7017028078 
H 2.3050361423 5.1778068160 6.5150265065 
H 2.7680137255 6.4664626376 5.7181187780 
O 2.7533249206 8.1765778635 5.7291282273 
H 3.6821428218 8.5134993798 5.7027945115 
H 2.3118634461 8.5087914710 4.9086613652 
O 1.4606240471 9.1100118954 7.9129982596 
H 1.9438389657 8.7745539194 7.1190223094 
H 1.9503463107 8.7660619089 8.7012767511 
O 5.3043821479 9.0696201659 5.6736814271 
O 6.6108924301 5.5168255505 7.9077753757 
H 6.1234014689 5.1798810715 8.6998403346 
H 6.1238510813 5.1766234446 7.1174974006 
H 9.9355419184 5.1784663535 6.4839076236 
H 5.7741177933 8.7668592155 6.4895515712 
O 6.5906528235 8.2054886250 7.8846706876 
H 6.1216080829 8.5119975078 8.6991486166 
H 6.5803262896 7.2158989663 7.9133923966 
H 9.9367152523 8.5080270829 6.4699724226 
O 9.1472055868 9.0700041410 7.8842475037 
H 8.2077591645 8.7614482213 7.8926313478 
O 10.3822457751 5.5091458567 5.6652140441 
H 11.3086905500 5.1662566650 5.7002801639 
O 14.1921731776 5.4894799263 7.9049327730 
H 13.7215166583 5.1856332865 8.7204911188 
H 14.1820404060 6.4779113207 7.9290000242 
O 10.4072489338 8.2066115045 5.6542088525 
H 10.3952629257 7.2175107711 5.6783351747 
O 12.9530421661 9.1172676717 5.7121425546 
H 13.4017889319 8.7730548329 4.9005556918 
H 12.0266884532 8.7731655525 5.6817642073 
O 14.1814054613 8.1963946226 7.9371560490 
H 15.1125738578 8.5293946900 7.9122874020 
H 13.7433480388 8.5314868215 7.1168820136 
H 4.3870862876 12.1068445191 5.7066797279 
O 2.7749274504 12.6668495490 5.6969232749 
H 2.7547622475 13.6564168199 5.7110399088 
H 2.2977386271 12.3682419809 6.5099012282 
O 1.5017008595 11.8127222847 7.9201257444 
H 0.5599131331 12.1160142528 7.9202896632 
H 1.4738416130 10.8239263294 7.9203164431 
H 6.5855399313 14.4009966391 7.9099001378 
O 5.3143312046 11.7637133778 5.7245031781 
H 5.7544473918 12.1089576859 4.9086860224 
H 5.3138920229 10.0591385744 5.6986907390 
O 6.5587330495 12.6948770288 7.9407482353 
H 6.1152623435 12.3602424595 7.1236749883 
H 7.4876374088 12.3549316292 7.9071551419 
O 9.0827902746 11.7644434093 7.8937879134 
H 9.5676630271 12.1169715476 8.6801107732 
H 9.5645256217 12.1046352721 7.0997714105 
H 9.1125705214 10.0589741764 7.8914843409 
O 10.3619079217 12.6669093729 5.7034918777 
H 14.2091942319 14.4070541770 7.9266215989 
O 12.9181134075 11.8035037590 5.7322689548 
H 13.3904909691 12.1126666250 4.9198882414 
H 12.9367583184 10.8138573641 5.7018372571 
H 10.3890354383 13.6564560358 5.7049841369 
H 11.3037643105 12.3638373517 5.7054770959 
O 14.2114536275 12.7006707977 7.9217111616 
H 13.7308107325 12.3574402323 7.1277446715 
H 13.7276736673 12.3556768217 8.7129904278 
O 1.4748276304 1.9150277850 12.3292084551 
H 1.9661319114 1.5779015793 13.1186718779 
H 1.9618900889 1.5806335877 11.5356315264 
H 4.3903512178 4.9175732450 10.1062235577 
O 1.4673342893 4.6068201466 12.3024938660 
H 1.9485005923 4.9124975680 13.1107862475 
H 1.4857741340 3.6174081422 12.3260916236 
O 2.7537644203 0.9985159047 10.1435346670 
H 3.6849480456 1.3316672217 10.1111818365 
H 2.3090752898 1.3362845978 9.3269089757 
O 5.2974042999 1.8776271436 10.1278432213 
O 5.3204657871 4.5846666475 10.0822669210 
H 5.7592935912 4.9236163039 10.9012193968 
H 5.3130599746 2.8659849793 10.1014415292 
H 5.7656262471 1.5720841448 9.3117250569 
O 6.5916600856 1.0049025373 12.3436620899 
H 6.1218460700 1.3043816121 11.5277315168 
O 9.1251986730 1.9156324985 12.3000484404 
H 9.5777562846 1.5756252344 13.1111547576 
H 8.2005490018 1.5649565200 12.3282193152 
O 9.0978801776 4.6093710221 12.2764426253 
H 9.5687043045 4.9119846346 13.0934359318 
H 9.1084472378 3.6198739517 12.3054787208 
H 9.9346139098 1.3507711080 10.8966515474 
O 10.3770297862 1.0237672127 10.0753943759 
O 12.8974574233 4.6178904977 10.1051769030 
H 12.9228321156 3.6280590115 10.1239517407 
H 13.3700912771 4.9221857256 10.9187187796 
O 12.9133297055 1.9307435812 10.1159450079 
H 13.3935645092 1.5882281677 10.9097659605 
H 13.4011264587 1.5880012067 9.3268612537 
H 11.3085224801 1.3567067068 10.1093466015 
O 14.1896306558 0.9888080700 12.2945021228 
H 15.1197358363 1.3232233002 12.3238153173 
H 13.7476973934 1.3316312587 13.1103875426 
O 2.7791442191 5.5055402391 10.1108945565 
H 2.2963560455 5.1654986373 10.9032661045 
H 2.2935644200 5.1600210151 9.3209360178 
O 1.4731287519 9.0782033068 12.3275251871 
H 1.9404740520 8.7742786372 11.5111235634 
O 2.7337906096 8.2042667695 10.0969438052 
H 2.7591785608 7.2152916401 10.1008234988 
H 3.6754677441 8.5061062303 10.1034836998 
O 5.2909490349 9.0704521697 10.0959356050 
O 6.5660315921 5.5149089917 12.2823140916 
H 6.1299161001 5.1770067556 13.1030209141 
H 7.4941090504 5.1714678419 12.3032207434 
H 9.9150348413 5.1685665687 10.8970984675 
H 5.7648361430 8.7601992358 10.9075018999 
O 6.5562842473 8.1992106585 12.3073165449 
H 7.4953010193 8.5074084614 12.3061041984 
H 6.5863982612 7.2090866989 12.3016669297 
O 9.1170625058 9.0800079965 12.3278531033 
H 9.5817062687 8.7721857219 11.5111520801 
H 9.9377526924 8.5100033989 9.2991478834 
O 10.3632307486 5.5112836334 10.0843249084 
O 14.1710041278 5.4825561317 12.3284436469 
H 14.2058567845 6.4718133259 12.3301697952 
H 15.1105916337 5.1712198205 12.3267132354 
H 11.2911171050 5.1692578403 10.1155599418 
O 12.9355203927 9.1074092853 10.1490969319 
H 13.3840227301 8.7790986104 9.3312342980 
H 12.0087133251 8.7631254609 10.1132042045 
O 10.4057095566 8.2055849887 10.1155238851 
H 10.3826468372 7.2160064207 10.0944349179 
O 14.1895460735 8.1762564891 12.3493399576 
H 13.7412669911 8.5129392979 11.5343325804 
H 15.1169474101 8.5193552369 12.3175325746 
H 1.4918042017 10.0677055022 12.3049414164 
H 4.3819711715 12.1147544928 10.1244435442 
O 1.5079597617 11.7710293207 12.3303429995 
H 0.5806939157 12.1135482469 12.3097214724 
H 1.9507460194 12.1207622026 11.5172511868 
O 2.7736223473 12.6821543430 10.1424041539 
H 2.3000837882 12.3814363835 9.3279719576 
H 2.7616164209 13.6717721510 10.1200817864 
H 6.5790696936 14.3932682964 12.3263908185 
O 5.3089291719 11.7713303774 10.1489613962 
H 5.7530869209 12.1088578928 9.3329531840 
O 6.6062390588 12.6950409224 12.3265535652 
H 6.1212529642 12.3528410902 13.1186283867 
H 6.1151049791 12.3612845310 11.5353034306 
H 5.3052941964 10.0590674341 10.1267855622 
H 9.1285466164 10.0690482138 12.2970767600 
O 9.1353108848 11.7746699931 12.3215917159 
H 9.5671926862 12.1233501572 11.5048191689 
H 8.2051226318 12.1116025143 12.3090707262 
O 10.3533296335 12.6958067177 10.0771392377 
O 12.9116506940 11.8072457791 10.1016787185 
H 12.9208504612 10.8184489474 10.1318065448 
H 13.3824489925 12.1145278059 10.9160635749 
O 14.2122810037 12.6741089098 12.2956164386 
H 14.1975756429 13.6634560686 12.3183690704 
H 13.7493542764 12.3700589308 13.1147512336 
H 11.2933519675 12.3900969646 10.0914326210 
H 10.3848964200 13.6842019315 10.0806547699 
O 2.7644526614 1.0172793498 14.5164400592 
H 3.7063207132 1.3217457125 14.5209445604 
O 1.4773722349 4.6131596919 16.7392629194 
H 1.4944979672 3.6235127177 16.7094856689 
H 1.9498046719 4.9202210579 15.9270570517 
O 1.5114343448 1.9270988772 16.7283757802 
H 1.9621180122 1.5817426364 15.9191129624 
H 0.5859871464 1.5779846195 16.7027265779 
O 5.2947755244 1.9254270250 14.5306647274 
O 5.3134166983 4.6182393320 14.4982386230 
H 5.7869337147 4.9266610275 15.3089924207 
H 5.3283676398 3.6289477161 14.5284715415 
H 5.7758356728 1.5790398444 13.7390238040 
H 5.7785036693 1.5763372332 15.3201785896 
O 6.5642025216 1.0074057982 16.7207562858 
H 7.5042759503 1.3161937603 16.7166482975 
O 9.1467426149 4.5859207395 16.6927104291 
H 9.5964158820 4.9246846672 17.5059990080 
H 8.2208129601 4.9329131556 16.7253162936 
O 9.1097806724 1.8903368125 16.7266887178 
H 9.5848892635 1.5844772679 15.9151492194 
H 9.1288769433 2.8795101327 16.7039345490 
O 10.3797886702 1.0183027148 14.5090451717 
O 12.8994101752 4.5848693934 14.5139269113 
H 13.3822452671 4.9241303682 15.3079131670 
H 13.3906680460 4.9281203221 13.7257705590 
H 11.3199395117 1.3262166112 14.5096422405 
O 12.9255786284 1.8943329102 14.4890410732 
H 12.9372152867 2.8840998235 14.5164444629 
H 13.4000141020 1.5897596984 15.3017723249 
O 14.2287239721 1.0211733525 16.6923384767 
H 13.7532297136 1.3291047510 17.5033498176 
O 2.7493831135 5.4785899020 14.5102638644 
H 3.6899443008 5.1746698916 14.5162464168 
H 2.7756708701 6.4673889015 14.5146122937 
O 2.7869697489 8.1770621824 14.5104462976 
H 2.3045574145 8.5186785128 13.7180582398 
H 2.3063158923 8.5287938486 15.3004027402 
H 4.3916370350 8.7618088083 14.5046302025 
O 1.5243164847 9.0913110867 16.7015097267 
H 0.5826996438 8.7894282367 16.7044361733 
O 6.6162261029 5.4927258708 16.7116389191 
H 6.5916287062 6.4824227014 16.7344032974 
H 6.1345828689 5.1852378057 17.5183567762 
H 9.9290429508 5.1681484398 15.2938659371 
O 5.3225386585 9.0955845136 14.5272118282 
H 5.7617992283 8.7543426084 13.7092595056 
O 6.6005279057 8.1826173562 16.7185153823 
H 6.1106210187 8.5271451114 17.5068799165 
H 6.1174026413 8.5156651947 15.9227360348 
H 9.9300844307 8.5162222598 13.7125385170 
O 9.1445876784 9.0939088036 16.7314472420 
H 9.5774644612 8.7532630842 15.9088087397 
H 8.2122831327 8.7650223802 16.7125455235 
O 10.3666583203 5.5017690230 14.4715707856 
H 11.2971514781 5.1676013127 14.4988987789 
O 14.1885688043 5.5155731662 16.6952665060 
H 13.7443225395 5.1729595118 17.5099099230 
H 15.1157753147 5.1729312664 16.7164567651 
O 10.3928480387 8.2061567538 14.5308193930 
H 10.3802292105 7.2175224279 14.4981595707 
O 12.9359721846 9.1065108634 14.5504847892 
H 13.3805562918 8.7662552622 13.7346000418 
H 12.0074876139 8.7667509480 14.5215916525 
O 14.2163999499 8.2173103556 16.7369634991 
H 14.2038824561 7.2283171148 16.7154062008 
H 13.7367659052 8.5178979831 15.9246040679 
H 2.7907165157 14.4075571057 14.5125922063 
H 4.4024283362 12.0898112988 14.5180958955 
O 2.8087846517 12.6816442653 14.5131990093 
H 2.3195714050 12.3473203386 13.7214645993 
H 2.3148014250 12.3545400062 15.3055053761 
O 1.5045032325 11.7898387776 16.6920281585 
H 0.5749062637 12.1259897209 16.7132855154 
H 1.9395679648 12.1270595026 17.5142683519 
H 1.4977653462 10.0802614269 16.7067706778 
H 6.5966374577 14.3970873725 16.7111690095 
O 5.3461814690 11.7900800431 14.5187781899 
H 5.3197009720 10.8005671287 14.5133090586 
O 6.6257920044 12.6813326401 16.7034493349 
H 6.1382387896 12.3418696570 15.9115541477 
H 6.1319780558 12.3495555474 17.4925995164 
H 9.9411482969 12.3510783909 15.3086155697 
H 9.9427838239 12.3588332813 13.7242163445 
O 9.1646963163 11.7911243106 16.7103357126 
H 8.2201410087 12.0871685712 16.7060307751 
H 9.1428857447 10.8017241958 16.7092029478 
H 10.4079788742 14.4081055232 14.5177496037 
H 14.2014294092 14.4099720775 16.7149380909 
O 12.9661198890 11.8057702336 14.5331179214 
H 12.9337942874 10.8168048121 14.5326159424 
H 12.0241369176 12.1097592314 14.5249558593 
O 10.4256782470 12.6967994553 14.5175939772 
O 14.2153612200 12.7143408934 16.7186239855 
H 13.7297235254 12.3628760048 15.9301372859 
H 13.7390254255 12.3728526086 17.5144794250 

