&CONTROL
   calculation      = 'vc-relax'
   tstress          = .true.
   tprnfor          = .true.
   outdir           = './'
   pseudo_dir       = '/global/homes/p/ppiaggi/QuantumEspresso/pseudos'
/
&SYSTEM
   ecutwfc          = 150
   input_dft        = 'SCAN'
   ntyp             = 2
   nat              = 384
   ibrav            = 0
/
&ELECTRONS
   mixing_beta      = 0.5
   startingpot      = 'atomic'
   startingwfc      = 'atomic+random'
/
&IONS
/
&CELL
/

ATOMIC_SPECIES
O 15.999400004115753 O_ONCV_PBE_sr.upf
H 1.0079400002592869 H_ONCV_PBE_sr.upf

K_POINTS gamma

CELL_PARAMETERS angstrom
15.25381037029248 0.00000000000000 0.00000000000000
0.00000000000000 14.37692798286520 0.00000000000000
0.00000000000000 0.00000000000000 17.61071330066443

ATOMIC_POSITIONS angstrom
O 1.4814376420 1.8949146532 3.4868066779 
H 1.9556778931 1.5966323283 4.3033204852 
H 1.4933791320 2.8832146047 3.5050919455 
H 4.3921049547 1.5708177582 1.3029545484 
O 1.5043848143 4.6050241908 3.5280836805 
H 0.5706761683 4.9301721005 3.4994578495 
H 1.9455535016 4.9405355919 2.7092401155 
O 2.7829032157 0.9891549622 1.3080889516 
H 2.3016339772 1.3311791588 2.1016107017 
H 2.2966054996 1.3326967817 0.5186525905 
O 5.2978736555 4.6073999896 1.2673407680 
H 5.7642187388 4.9096590137 2.0846786027 
H 5.3086650363 3.6184985029 1.2909831351 
O 5.3210806400 1.9084265078 1.2743914797 
H 5.7647874286 1.5682079601 2.0906698669 
O 6.5521162371 1.0140975004 3.5002874771 
H 7.4927318206 1.3198954289 3.5073779806 
O 9.1094890459 1.8821325288 3.4907515837 
H 9.1291890525 2.8708354301 3.5122412272 
H 9.5773901811 1.5758365942 4.3057387990 
O 9.1428862987 4.5839570505 3.5286310493 
H 9.5831020897 4.9278829236 2.7110176493 
H 8.2156187423 4.9260235883 3.5064697984 
H 9.9329829716 1.3335666296 0.5101210257 
H 9.9361515851 1.3224792729 2.0916474926 
O 12.9274101765 4.5709111868 1.3236690691 
H 11.9982790230 4.9115899394 1.3039973610 
H 13.3703492715 4.9223439378 0.5120927353 
O 12.9607538587 1.8821002671 1.2975902444 
H 12.0199775117 1.5765547593 1.2968927972 
H 12.9280193067 2.8720919484 1.2978434683 
O 10.4166495976 0.9813405206 1.2979897202 
O 14.1987582072 0.9736872093 3.5136650817 
H 13.7564532507 1.3223271214 2.7000860963 
H 15.1235570320 1.3238990354 3.4975078682 
O 2.7503098310 5.5239104878 1.3183402663 
H 3.6748950013 5.1757996337 1.2928941043 
H 2.3012981817 5.1805853445 0.5050879670 
O 1.5080724267 9.1100844438 3.4975542629 
H 1.9543750108 8.7678102366 4.3122013210 
H 0.5842460895 8.7593124002 3.5196082273 
H 4.3898531032 8.7842878979 1.3041608663 
O 2.7755672928 8.2259552803 1.2959435160 
H 2.3076591607 8.5241099306 2.1154647941 
H 2.7628526798 7.2368525951 1.3114416721 
O 6.5897711248 5.4814751415 3.4764111452 
H 6.5757290723 6.4708787149 3.5004007861 
H 6.1185836970 5.1775856540 4.2901164271 
H 9.9267172626 5.1786665087 0.5125747076 
O 5.3315697073 9.0879714354 1.2899704192 
O 6.5992488725 8.1756854453 3.4867828767 
H 6.1137901194 8.5247980038 4.2761180467 
H 6.1188448810 8.5196483576 2.6937089976 
O 9.1344439735 9.0801965955 3.5234184103 
H 9.5796220935 8.7465722938 2.7058387317 
H 8.2023973287 8.7496697797 3.4892932756 
H 9.9394638401 8.5005650699 0.5031180739 
O 10.3864510577 8.1636875109 1.3179529397 
O 14.2200468300 5.4869915258 3.5039297119 
H 13.7353013650 5.1504176810 4.2972491437 
H 13.7287135697 5.1522934386 2.7132024155 
O 10.3957586608 5.4759681909 1.3317535988 
H 10.3922981329 6.4663139554 1.3063792443 
O 12.9112073828 9.0626808376 1.3245628870 
H 13.3859085592 8.7627211137 0.5099342416 
H 11.3139962721 8.5097295949 1.2908760741 
O 14.2172118346 8.1883352914 3.5285017290 
H 14.2037343964 7.1994314179 3.5056418321 
H 13.7427431742 8.4897997256 2.7149767408 
H 4.3905330041 12.1251921444 1.3041127716 
O 1.4957036401 11.7993239728 3.4719178616 
H 1.9580616951 12.1112112375 4.2882973850 
H 1.5033363838 10.8103259086 3.5079030573 
O 2.7891181322 12.6750838742 1.2781146604 
H 2.7667211743 13.6642655881 1.3079587873 
H 2.3180732565 12.3623490116 2.0904202280 
H 6.5847478120 14.4016109511 3.5043239646 
O 5.3187828636 11.7818693996 1.2769129659 
H 5.7643214612 12.1172249379 2.0936163683 
O 6.5767073471 12.6976266706 3.4845057666 
H 7.5021942488 12.3520413387 3.5147267749 
H 6.1267728083 12.3623766386 4.2993367632 
H 5.3029802023 10.0773896103 1.2976815265 
O 9.1197976166 11.7830921591 3.5478003301 
H 9.1331659428 10.7943541778 3.5210247743 
H 9.5906966585 12.0853350700 2.7322449160 
O 10.3721513508 12.6522565819 1.3125011068 
O 12.9095488307 11.7589010413 1.2996709648 
H 13.3991974401 12.1030812755 2.0882424713 
H 13.3934712701 12.0995196155 0.5065180933 
O 14.1843193130 12.6622788503 3.4875939344 
H 15.1253075672 12.3578592914 3.4859428880 
H 14.2147469185 13.6522120643 3.4862095852 
H 12.9270255706 10.0520706114 1.3014496176 
H 10.3964088386 13.6408200539 1.3045315051 
H 11.3147470150 12.3504265991 1.3061325542 
O 2.7497378963 1.0003984552 5.6719034811 
H 3.6802239430 1.3351372831 5.7011793265 
H 2.3114291175 1.3320806683 6.4942860638 
O 1.4898085395 4.6130731007 7.9367000144 
H 1.5084677952 3.6244689145 7.9168203797 
H 1.9619075538 4.9156953888 7.1206677044 
O 1.5154930859 1.9062954508 7.8935332487 
H 0.5880977567 1.5652833921 7.9165702735 
H 1.9600443595 1.5613125464 8.7071689585 
O 5.2865286580 1.9176236394 5.7021395558 
O 5.2847480884 4.6068217728 5.6856892373 
H 5.3054802687 3.6170805471 5.7069914494 
H 5.7561342675 4.9104999641 6.5000055117 
H 5.7717283562 1.5759085614 6.4946154856 
H 5.7711876443 1.5743716296 4.9114164647 
O 6.5505443895 1.0212611158 7.8961340508 
H 7.4941006819 1.3209256243 7.8948133123 
O 9.1060678718 4.6033308555 7.9305785907 
H 9.5784623841 4.9109776523 7.1182715653 
H 9.1201418820 3.6137630104 7.9015559430 
O 9.0889117725 1.9134198400 7.9016351368 
H 9.5697564765 1.5711197689 8.6956843520 
H 9.5771873660 1.5651595961 7.1135050162 
O 10.3655398362 1.0056289536 5.7213518323 
O 12.9421011644 4.5676783193 5.6964396096 
H 12.0166291856 4.9164144780 5.7158894998 
H 13.3874486868 4.9130946779 6.5083170798 
H 11.3070108363 1.3082071878 5.7141649629 
O 12.9274860422 1.8658297396 5.7200723555 
H 13.3949314733 1.5666268708 4.9017557466 
H 12.9374995782 2.8548309383 5.7025028140 
O 14.2341465244 0.9675249572 7.9077289289 
H 13.7532460208 1.3057111223 7.1128302283 
H 13.7438633827 1.3134385539 8.6943457495 
O 2.7519176161 5.5100651621 5.7386512083 
H 2.3057765297 5.1763560203 4.9214898533 
H 3.6783462028 5.1629902755 5.7116042315 
O 2.7814453296 8.2164144537 5.6915027134 
H 2.3102074431 8.5201886663 6.5071243754 
H 2.7686895177 7.2278166734 5.7155353964 
H 4.3944372876 8.7844545625 5.6850429369 
O 1.5095732792 9.1112985469 7.8840555096 
H 1.9438825336 8.7718508329 8.7062552433 
H 0.5802288948 8.7733611770 7.9055625937 
O 6.5465726555 5.4732619541 7.9163192906 
H 7.4857283267 5.1638687553 7.9127448973 
H 6.5797889318 6.4621926795 7.9018753639 
H 9.9395255568 5.1788170750 4.9123811083 
O 5.3366045489 9.0859405026 5.6733744235 
O 6.5592900440 8.1638788485 7.9069072637 
H 6.1209250796 8.5107183285 7.0921856310 
H 7.4828431065 8.5185381794 7.8935630357 
H 9.9253020190 8.5042490188 4.9114986402 
H 9.9170788495 8.5230114275 6.4947267856 
O 9.0853459242 9.0909467040 7.8816634351 
H 9.5587514374 8.7852226781 8.6943868015 
O 10.4107330611 5.4798977987 5.7290630022 
H 10.3908868435 6.4693135956 5.7110959074 
O 14.1847696857 5.4773771677 7.9170735591 
H 15.1268693982 5.1770473707 7.9170558555 
H 14.2079675914 6.4664039534 7.9166554680 
O 10.4081598515 8.1754023873 5.7103745623 
O 12.9521542458 9.0990933476 5.7236810102 
H 12.0221010644 8.7649496874 5.7008075479 
H 13.3918117820 8.7517928598 4.9082786483 
O 14.2295987535 8.1771319218 7.9107552468 
H 13.7433385483 8.5158022210 7.1194125489 
H 13.7425393410 8.5121245255 8.7038949366 
H 4.3911808888 12.1241701011 5.7070186598 
O 2.7824214908 12.6774945592 5.6804197122 
H 2.7614904500 13.6663637822 5.7019582749 
H 2.3147631526 12.3721550953 6.4963923382 
O 1.5272285854 11.8024856905 7.9115778116 
H 0.5853923244 12.1069275498 7.9167108090 
H 1.4966767154 10.8129247422 7.9067128993 
H 6.5751352905 14.4084800107 7.9004047150 
O 5.3197374567 11.7833363805 5.6806752017 
H 5.7614562421 12.1163195026 6.5002518827 
H 5.3098334566 10.0750783145 5.6815556033 
O 6.5635033609 12.7022222126 7.8943559300 
H 7.4948836226 12.3688829970 7.9194692699 
H 6.1232871453 12.3617662935 8.7119621469 
H 9.9464040249 12.3443743035 4.9257219286 
O 9.0923216576 11.7908961584 7.9180297932 
H 9.5804400957 12.1186145285 8.7126975930 
H 9.5884454970 12.1224114007 7.1288487834 
H 9.1027937938 10.0796521170 7.9074777939 
H 10.3936331164 14.3928360217 5.7202865516 
O 12.9336435072 11.7961521322 5.7263141677 
H 13.3965645333 12.1033246379 4.9084156831 
H 12.9470203396 10.8070970597 5.6967200510 
O 10.3883949706 12.6923009837 5.7397863983 
H 11.3176175909 12.3544269080 5.7142415626 
O 14.2223581468 12.6571775842 7.9412444817 
H 14.2108037209 13.6468923159 7.9136071778 
H 13.7583123830 12.3520614821 7.1233751954 
O 1.4745183627 1.8816703140 12.2888280908 
H 1.9481850677 1.5793405902 13.1038211153 
H 1.4908340854 2.8701843176 12.3119834611 
H 4.3926031175 1.5731121078 10.1017237107 
O 1.5055728630 4.5845898907 12.3434463066 
H 1.9490899489 4.9265712272 11.5283878992 
H 0.5759871714 4.9195984523 12.3153796582 
O 2.7795483825 0.9996881542 10.0864327308 
H 2.3046176692 1.3037764763 10.8984591314 
O 5.2819898026 4.6165229928 10.1401202839 
H 5.7541405331 4.9224076936 9.3259937797 
H 5.2977785925 3.6269108231 10.1113231739 
O 5.3161040038 1.9261350299 10.1231200405 
H 5.7616243149 1.5841667139 9.3095715835 
O 6.5931071178 1.0266356253 12.3261355648 
H 6.1200043889 1.3312254114 11.5129671793 
O 9.1300626383 1.9164178671 12.2846218975 
H 8.2014887266 1.5746238819 12.3081901838 
H 9.5717367205 1.5753268189 13.1001782952 
O 9.0895607149 4.6268162133 12.3250629142 
H 9.1042039695 3.6384626657 12.3041061281 
H 9.5592252448 4.9276446477 11.5068795961 
H 9.9265955693 1.3227881419 10.9024907067 
O 12.9028398199 4.5759202271 10.1019758605 
H 13.3897316740 4.9199518828 9.3123251149 
H 13.3853148921 4.9161439848 10.8952867115 
O 12.9540630624 1.8807936640 10.0929371572 
H 12.0115005450 1.5813000373 10.0966072695 
H 12.9296287009 2.8704545823 10.0931918442 
O 10.3936160170 1.0187089622 10.0846926968 
O 14.1887103828 0.9834268128 12.3275449584 
H 13.7475920266 1.3239347612 11.5112877730 
H 15.1162363826 1.3270278218 12.3065754346 
O 2.7478037065 5.5192469300 10.1404208974 
H 2.3065517620 5.1764464423 9.3242446301 
H 3.6760949714 5.1773110216 10.1164177547 
O 1.4724386199 9.0726133184 12.3001744782 
H 1.9441890322 8.7721272135 13.1152814819 
H 4.3812997343 8.7627373711 10.0981028527 
O 2.7585198143 8.2157762398 10.0890220567 
H 2.2908381210 8.5172070623 10.9070015471 
H 2.7503013165 7.2263185004 10.1143179455 
O 6.5483344962 5.5168829525 12.3357800951 
H 7.4776063177 5.1776201390 12.3055902845 
H 6.1029101918 5.1741168105 11.5206810012 
H 9.9217300552 5.1625772726 9.3096412488 
O 5.3130621847 9.0935131341 10.1206218695 
H 5.7504824189 8.7511810795 9.3024287427 
O 6.5764631372 8.2071235209 12.3308749566 
H 6.5648662628 7.2169872224 12.3109211596 
H 6.1110919876 8.5052900452 11.5107395297 
O 9.1127439452 9.1177688320 12.3284469634 
H 8.1851974238 8.7744612529 12.3094525272 
H 9.5515967300 8.7737292749 11.5116783954 
O 10.3446953016 8.2084475294 10.1033317807 
O 10.3600993401 5.5079767531 10.1272126175 
H 10.3686646139 7.2197380580 10.1044564620 
O 14.2086993804 5.4704204227 12.2844687667 
H 13.7394788156 5.1722928127 13.1019220213 
H 14.1998882513 6.4603000155 12.3067073544 
H 11.2891520151 5.1706149187 10.1052866920 
O 12.9098320079 9.0579049625 10.0905049486 
H 13.3868481197 8.7513655675 10.9010115587 
H 11.2875610546 8.5073235293 10.1070618625 
O 14.1937782716 8.1624463182 12.2866158314 
H 15.1201710151 8.5088444294 12.3160339616 
H 13.7456323779 8.5063308018 13.0992767138 
H 2.7690156382 14.3870734309 10.1115131058 
H 1.4853077303 10.0624820301 12.3207322285 
H 4.3944233444 12.0952316865 10.1144955537 
O 1.5022977261 11.7634249372 12.2871563685 
H 1.9468281517 12.1100594366 13.0999656997 
H 0.5731124056 12.1021848031 12.3147951280 
O 2.8018808428 12.6830591624 10.1079127447 
H 2.3115609078 12.3469513115 10.8988137643 
H 2.3127591390 12.3469243254 9.3157961339 
H 6.5748346368 14.4135853225 12.3025807071 
O 5.3381359830 11.7955306805 10.1201788614 
H 5.3136126320 10.8067346513 10.1138552338 
O 6.6011259499 12.7143621309 12.3051026473 
H 6.1140870649 12.3754185074 13.0962948603 
H 6.1189209070 12.3646554740 11.5142622580 
O 9.1413239604 11.8109258725 12.3275600746 
H 8.2014835208 12.1197217951 12.3174642576 
H 9.1073443136 10.8217849753 12.3191599089 
H 9.9406028332 12.3647758859 10.9250959030 
H 10.3868752371 14.4064741253 10.1134326841 
O 12.9155720870 11.7495600108 10.1214297966 
H 13.4005418784 12.0948177430 9.3318050608 
H 13.3990068439 12.0896774708 10.9143112037 
O 14.2185482701 12.6575777301 12.3029043740 
H 14.2032388078 13.6465877803 12.3193763961 
H 13.7457810920 12.3577761212 13.1186010044 
H 12.9309482221 10.0471595955 10.1164447330 
O 10.3861426776 12.7000845186 10.1078292716 
H 11.3115181775 12.3534795567 10.1318391758 
O 2.7374249505 1.0309423397 14.5057492201 
H 3.6776373455 1.3368179152 14.5069994248 
O 1.4779846073 4.6285576864 16.7476880544 
H 1.4925973612 3.6395390348 16.7219579527 
H 1.9513596961 4.9316738720 15.9327927848 
O 1.5019922310 1.9294791964 16.7368931773 
H 1.9441374001 1.5924576424 15.9194865388 
H 0.5751405072 1.5864952300 16.7111168818 
O 5.2844676794 1.9340084986 14.5113440760 
O 5.2812224453 4.6249735764 14.5334163888 
H 5.7518899419 4.9268802300 13.7166527695 
H 5.2999996441 3.6353055490 14.5136133210 
H 5.7662469090 1.5921829048 13.7186156426 
H 5.7688687491 1.5851902853 15.3006179365 
O 6.5889286506 1.0209999331 16.6816788704 
H 6.1188489518 1.3195607606 17.4997771252 
H 9.9359654156 1.3333974470 15.3129658755 
O 9.1300583792 4.6007487316 16.7345487566 
H 9.5710832286 4.9408298218 15.9160934869 
H 8.2021762234 4.9420115070 16.7104161729 
O 9.1451110674 1.9046957683 16.7215618985 
H 9.1165355469 2.8939399921 16.7202901323 
H 8.2044196561 1.5989758166 16.7162014330 
O 10.3766063102 0.9824614331 14.5009594132 
O 12.9349580703 4.5849792702 14.4987882543 
H 13.3799437006 4.9302957555 15.3113435775 
H 12.0092331249 4.9317221356 14.5203844531 
H 11.3041836719 1.3241338138 14.5176981391 
O 12.9185544590 1.8827808035 14.5296050152 
H 12.9305458273 2.8718658073 14.5128565671 
H 13.3901163968 1.5834645122 13.7134949601 
O 14.2253590194 0.9829184754 16.7149709022 
H 13.7394109482 1.3278831403 17.5050019498 
H 13.7421593967 1.3207710900 15.9213342133 
O 2.7542370988 5.5191933042 14.5518830508 
H 3.6835275869 5.1768231811 14.5234840876 
H 2.3099724344 5.1803531951 13.7360232796 
O 2.7454721104 8.2144038888 14.5320257644 
H 3.6860461413 8.5214604328 14.5214761488 
H 2.7761250394 7.2248282309 14.5341952943 
O 1.4741927192 9.1286031010 16.7141684731 
H 1.9635859977 8.7786713278 15.9281358814 
H 1.9522607459 8.7899003254 17.5101750063 
O 5.2849759526 9.1196415508 14.5038791644 
O 6.5907892346 5.5350603327 16.7082625801 
H 6.1113559279 5.1819673683 17.4983749782 
H 6.1090585685 5.1904980157 15.9161390630 
H 9.9203916418 5.1936355551 13.7214941557 
H 5.7707021550 8.7791664100 15.2958066306 
H 5.7650800491 8.7699500787 13.7119358714 
O 6.5952184265 8.2199170022 16.6843451055 
H 6.1198704828 8.5283594130 17.4950522316 
H 6.5713403926 7.2302536214 16.7076690338 
H 9.9299739078 8.5244206172 15.3018616416 
H 9.9311600183 8.5258098724 13.7201011021 
O 9.1444164001 9.0667850269 16.7015894426 
H 8.2004939154 8.7674438545 16.7032893334 
O 10.3936935384 5.4936554222 14.5360480127 
H 10.3852936162 6.4833380475 14.5127614220 
O 14.1692888808 5.4929761181 16.7263294833 
H 15.1109386169 5.1913619324 16.7226442822 
H 14.1957460222 6.4821626120 16.7188177877 
O 10.4197639181 8.1873440818 14.5099024483 
O 12.9607899978 9.0718894459 14.5051341702 
H 12.0173988737 8.7732868358 14.5087021111 
O 14.1936752764 8.1862574327 16.7309282504 
H 13.7501280066 8.5233841974 15.9131982669 
H 15.1201563937 8.5308063184 16.7077826547 
H 2.7679471156 14.4181288883 14.5041299099 
O 2.7506341159 12.7169086570 14.4793059661 
H 3.6791360813 12.3745966819 14.5062588390 
H 2.3085104661 12.3784487169 15.2971391220 
O 1.4872868364 11.8181100499 16.6815717741 
H 1.5038235348 10.8284107034 16.7065600404 
H 1.9612583425 12.1221049803 17.4949706697 
H 6.5780306632 14.4090416801 16.7030872981 
O 5.2823423588 11.8140654682 14.4839785214 
H 5.7566514129 12.1122736713 15.2999460916 
H 5.2983542350 10.8245391086 14.5028369664 
O 6.5615598709 12.6962633072 16.6807059893 
H 6.1144221478 12.3646638497 17.4988087532 
H 7.4892125565 12.3559016263 16.7170912902 
H 9.9268357010 12.3630476838 13.7336086433 
O 9.0946769731 11.7616229851 16.7330788213 
H 9.5823048655 12.0984769233 17.5258055401 
H 9.5799229291 12.1033834328 15.9423172918 
H 9.1213323585 10.0561858492 16.7144476428 
O 12.9420689168 11.7636870815 14.4993198959 
H 12.0135118001 12.1046785921 14.5235336372 
H 13.3858352252 12.1073201132 15.3137186306 
O 10.4010078199 12.6627095048 14.5487080756 
H 10.3890797592 13.6517459110 14.5291123321 
H 12.9375873528 10.0615111919 14.5082937995 
O 14.1837912861 12.6659351388 16.7151161771 
H 14.2058835980 13.6556014769 16.7223576176 
H 15.1272754028 12.3675295369 16.7148651519 

