&CONTROL
   calculation      = 'vc-relax'
   tstress          = .true.
   tprnfor          = .true.
   outdir           = './'
   pseudo_dir       = '/global/homes/p/ppiaggi/QuantumEspresso/pseudos'
/
&SYSTEM
   ecutwfc          = 150
   input_dft        = 'SCAN'
   ntyp             = 2
   nat              = 384
   ibrav            = 0
/
&ELECTRONS
   mixing_beta      = 0.5
   startingpot      = 'atomic'
   startingwfc      = 'atomic+random'
/
&IONS
/
&CELL
/

ATOMIC_SPECIES
O 15.999400004115753 O_ONCV_PBE_sr.upf
H 1.0079400002592869 H_ONCV_PBE_sr.upf

K_POINTS gamma

CELL_PARAMETERS angstrom
15.25460333062767 0.00000000000000 0.00000000000000
0.00000000000000 14.38010658771741 0.00000000000000
0.00000000000000 0.00000000000000 17.61637837441673

ATOMIC_POSITIONS angstrom
O 1.4971997320 1.8984271218 3.4831796960 
H 0.5667508601 1.5642662944 3.5126731626 
H 1.9387814416 1.5657656255 4.3034729224 
H 4.3811892211 1.5747395078 1.3052376634 
O 1.4940085837 4.5968773965 3.4681887818 
H 1.9596416803 4.8986071840 4.2877216005 
H 1.5005288340 3.6077697944 3.4950030181 
O 2.7785016340 0.9951422149 1.2971678451 
H 2.2922452560 1.3258442014 2.0934712066 
H 2.2899585692 1.3381361150 0.5089672422 
O 5.2860209179 4.5756304820 1.3014844612 
H 5.7716942691 4.9133085943 0.5096307767 
H 5.7707743005 4.9173156165 2.0923849408 
O 5.3251956575 1.8709976310 1.3127917468 
H 5.3033203822 2.8598800429 1.3090310099 
O 6.5805646547 0.9968329494 3.5440491246 
H 6.1104361657 1.2982351745 2.7282674109 
O 9.1142339507 1.9264134646 3.4978963737 
H 8.1889702601 1.5778153094 3.5193196137 
H 9.5598152892 1.5802037091 4.3100982786 
O 9.1497208359 4.6146723685 3.4892394218 
H 9.1164766990 3.6252202098 3.5010888078 
H 8.2091701840 4.9229208854 3.4977501306 
H 9.9252323790 1.3394982887 0.5213886516 
H 9.9219583074 1.3448283554 2.1049183363 
O 12.9198050474 4.6176760569 1.2893274035 
H 13.3921644362 4.9222324077 2.1029948290 
H 12.9373433796 3.6283287922 1.3116881291 
O 12.9479600484 1.9202188569 1.3360128145 
H 12.0162688331 1.5897374638 1.3145282612 
H 13.3849748890 1.5761310522 0.5183388723 
O 10.4125533295 1.0083806097 1.3153492712 
O 14.2189939061 0.9783407888 3.5189158516 
H 13.7367884343 1.3208034970 2.7260775462 
H 13.7329836174 1.3193614832 4.3099980293 
O 2.7443843419 5.4970456842 1.2698104530 
H 2.3052926203 5.1533462274 2.0877325265 
H 3.6739559461 5.1619017729 1.2941767024 
O 1.5042352739 9.0859024539 3.5187993439 
H 1.9678730836 8.7783505427 2.7011095437 
H 4.3984987351 8.7582290256 1.3083727191 
O 2.7790321871 8.1997138664 1.3107864133 
H 2.7576398334 7.2112383835 1.2885189615 
H 2.3065399454 8.5079697512 0.4977455912 
O 6.6019913996 5.4811607925 3.4821023671 
H 6.5794177386 6.4702884282 3.5073367902 
H 6.1274505723 5.1725892312 4.2927643723 
H 9.9379809162 5.1698219034 2.0839595968 
O 5.3380219927 9.0672431167 1.3221450611 
O 6.5972297826 8.1730026642 3.5142673008 
H 6.1094171490 8.5194626054 2.7250411921 
H 6.1164669221 8.5126906625 4.3077143574 
O 9.1387239618 9.0987888370 3.4718885742 
H 8.2106619709 8.7593920654 3.5023225970 
H 9.5831507288 8.7628672092 4.2896054613 
H 9.9402672787 8.5033119435 2.0830153213 
O 14.1925727453 5.4892994196 3.5052341915 
H 15.1301426133 5.1759940884 3.4993859713 
H 14.2286170509 6.4780905438 3.5060494188 
O 10.3853562832 5.5102724451 1.2692460373 
H 11.3138416904 5.1680267391 1.3007644882 
O 12.9601639586 9.1266036097 1.3192537123 
H 12.0352833260 8.7782492138 1.2923861974 
H 13.4043670282 8.7897154408 0.5015622428 
O 10.4165303756 8.2068333959 1.2686324233 
H 10.4026289401 7.2170631765 1.2854168185 
O 14.2223566373 8.1860303598 3.5220426094 
H 13.7807919424 8.5283398337 2.7066504681 
H 15.1509008385 8.5269729856 3.5001183407 
H 1.5163163514 10.0754294742 3.4920695592 
H 4.3872492050 12.1061479424 1.2829273338 
O 1.5228354501 11.7832321708 3.4724865056 
H 1.9606698919 12.1243400762 4.2923892264 
H 0.5932275678 12.1198518132 3.4980725926 
O 2.7853889774 12.6793915739 1.2669144885 
H 2.7690439388 13.6687314829 1.2873995695 
H 2.3153052110 12.3792313586 2.0841269496 
H 6.5743727235 14.3880781172 3.5184218059 
O 5.3111817468 11.7528357614 1.3050501277 
H 5.7583094175 12.0951931610 0.4923900526 
O 6.5651272170 12.6781384328 3.5233584887 
H 7.4956348094 12.3427184267 3.4906069191 
H 6.1208679220 12.3444334703 2.7060997972 
H 5.3033323416 10.0570460169 1.3086475506 
O 9.1043297218 11.8019762470 3.5176844311 
H 9.5833459037 12.1103737986 2.7083679030 
H 9.1265905573 10.8130448103 3.4932890762 
O 10.3819167445 12.6813280899 1.3121549086 
O 12.9346405503 11.8174316253 1.3258534093 
H 12.9456123840 10.8277735666 1.2985008679 
H 13.4011756388 12.1222443044 0.5081743040 
O 14.2247882425 12.6674635079 3.5306022590 
H 13.7558966565 12.3677666375 2.7120281225 
H 14.2065209858 13.6570571518 3.5127678213 
H 11.3242693832 12.3791141176 1.3106394708 
H 10.4052889951 13.6697077466 1.3149787554 
H 4.3879643683 4.9070482174 5.7055825820 
O 2.7352209759 0.9847938448 5.6943088963 
H 2.2901198124 1.3209041253 6.5126929752 
H 3.6649410143 1.3189651871 5.7278761463 
O 1.4908594518 4.5678870266 7.8806506334 
H 1.9384406899 4.9044394766 8.6965280352 
H 0.5625497409 4.9090045057 7.9103731122 
O 1.4750912855 1.8771013824 7.8864698414 
H 1.9456321525 1.5831928261 8.7065825033 
H 1.4832316056 2.8673187016 7.9034510064 
O 5.2793645694 1.9056176085 5.7317521423 
O 5.3303293332 4.6068137077 5.7042059243 
H 5.3051583439 3.6178644731 5.7139780238 
H 5.7628051267 1.5677969237 6.5250447043 
H 5.7625992842 1.5573679423 4.9426587381 
O 6.5571466040 1.0157510801 7.9374673515 
H 7.4985269093 1.3198845947 7.9274357205 
O 9.1406679650 4.5854431951 7.8759477208 
H 9.5775827265 4.9291222522 8.6945894572 
H 8.2119256541 4.9224991661 7.8953219788 
O 9.1136616683 1.8812149594 7.9303731760 
H 9.5796366283 1.5686920277 7.1149054375 
H 9.1332156363 2.8693602985 7.8996154550 
O 10.3598456037 1.0109169879 5.7065122932 
O 12.9489008182 4.5901017761 5.7264119236 
H 12.0198582431 4.9295527336 5.6954470941 
H 13.3972253115 4.9325231314 4.9142100718 
H 11.3003938095 1.3165178259 5.7108010192 
O 12.9163485368 1.8831887603 5.6956466159 
H 13.3922873011 1.5803251794 6.5083657974 
H 12.9329987256 2.8717496915 5.7152323033 
O 14.2003024965 0.9798524476 7.8844497655 
H 13.7585991309 1.3203780392 8.7002949623 
H 15.1290553963 1.3225804262 7.9091280389 
O 2.7670534435 5.4620403841 5.6836129290 
H 2.2930154403 5.1568506539 6.4967025638 
H 2.7487737359 6.4507472899 5.7047746333 
O 2.7379647562 8.1646950842 5.7208552463 
H 2.3059692353 8.5167813971 4.9030586289 
H 3.6647724005 8.5081201523 5.7128669357 
O 1.4822418602 9.0632973044 7.9242672004 
H 1.9458388180 8.7590780918 7.1042068882 
O 5.2828136084 9.0768555198 5.7068115806 
O 6.5964733095 5.5182190292 7.8952276893 
H 6.1134460418 5.1732489279 7.1037551679 
H 6.1130168810 5.1752875066 8.6860529742 
H 9.9344766307 5.1690040942 6.4786605252 
H 9.9352495494 5.1691651751 4.8934138658 
H 5.7596963398 8.7802644126 6.5210530445 
O 6.5564323547 8.2155792374 7.9218056331 
H 6.5802419557 7.2265214708 7.9130326915 
H 7.4980255509 8.5187574799 7.9174173704 
O 9.1101119302 9.0831318672 7.9292341153 
H 9.5811092486 8.7794364936 7.1145762143 
O 10.3729240385 8.2124499542 5.7006241301 
H 10.3936077858 7.2237462746 5.6951046435 
O 10.4201167564 5.5077023680 5.6867704576 
O 14.2068290137 5.4680496479 7.9350544980 
H 13.7365680747 5.1727042179 7.1155396228 
H 14.2018416052 6.4579750640 7.9149206872 
H 11.3173770442 8.5085067386 5.6976658194 
O 12.9125884927 9.0896682804 5.6978008079 
H 13.4088891371 8.7585764828 4.9085454839 
H 13.3973924476 8.7532711992 6.4908923049 
O 14.1982700232 8.1630069826 7.8917157187 
H 15.1259401681 8.5055673921 7.9136874026 
H 13.7518526239 8.5074964897 8.7039521793 
H 4.3862072731 12.1194766292 5.7033064382 
O 2.7668289225 12.6718013702 5.6779372441 
H 2.7486707372 13.6615762065 5.7060709940 
H 2.3016960248 12.3643867949 6.4955933857 
O 1.5126260988 11.7669775404 7.8858081891 
H 1.9528862662 12.1212395572 8.6985224034 
H 0.5831013728 12.1035061671 7.9055687084 
H 1.5006218482 10.0520145733 7.9044570064 
H 6.5866825678 14.4064816616 7.9333511999 
O 5.3138693808 11.7786596932 5.7301002929 
H 5.7588968437 12.1095048090 4.9112194307 
H 5.2963785446 10.0659738984 5.7211619777 
O 6.6123341437 12.6970587359 7.9203540132 
H 6.1193131778 12.3569439542 8.7081866290 
H 6.1257123648 12.3672024898 7.1259071162 
H 9.9276402635 12.3631530713 4.9062942218 
O 9.1401495221 11.7742923570 7.9329309063 
H 8.2097087813 12.1092300966 7.9103469488 
H 9.5783434242 12.1111579844 7.1127615728 
H 9.1266022633 10.0727532608 7.9071304351 
H 10.3879617891 14.4013228821 5.7057450659 
O 12.9075933924 11.7919137062 5.7249823329 
H 12.9229179801 10.8032162094 5.6966401391 
H 13.3819360021 12.0978654971 4.9126143693 
O 10.3714681994 12.7025703428 5.7222099290 
H 11.2979837590 12.3563561871 5.6967831557 
O 14.2148771669 12.6612645355 7.9236176173 
H 14.2084588498 13.6503371797 7.9022423990 
H 13.7410778293 12.3595487777 7.1100628155 
O 1.4804003387 1.8905671381 12.2967323195 
H 1.9503723648 1.5858929230 13.1121659091 
H 1.4938782082 2.8809140226 12.3223886811 
O 1.4945037275 4.5752870989 12.2965883968 
H 1.9420873647 4.9266429927 13.1072693295 
H 0.5644709552 4.9109364927 12.3233628898 
O 2.7410770564 1.0044492484 10.0927291087 
H 3.6707209297 1.3420683381 10.1207249449 
H 2.2982340818 1.3430129213 10.9107486835 
O 5.2772905705 4.6117715652 10.0820626766 
O 5.2781873441 1.9231663030 10.1182792058 
H 5.7495915518 4.9195447990 10.8950060536 
H 5.2987933951 3.6220284277 10.1078029871 
H 5.7689765148 1.5771487465 9.3314586557 
H 5.7625929505 1.5898950308 10.9142055479 
O 6.5565213693 1.0313673230 12.3149866024 
H 7.4987805599 1.3344579802 12.3172455057 
O 9.0934206813 1.9305961325 12.3275726449 
H 9.5746414384 1.5866783432 13.1213090706 
H 9.5771012735 1.5803780666 11.5390291639 
O 9.0934591664 4.6259037081 12.2903968952 
H 9.1140336190 3.6370776693 12.3210930359 
H 9.5625231161 4.9379775347 13.1031817312 
H 9.9336048235 1.3165749491 9.3308310073 
O 12.9418474279 4.5733401412 10.1300149635 
H 12.0150441822 4.9178505576 10.1062579398 
H 13.3849643115 4.9159629508 9.3138383488 
O 12.9636331634 1.8844959631 10.1236885259 
H 12.9334736205 2.8742972047 10.1132883500 
H 12.0239491325 1.5790894530 10.1220212444 
O 10.3957814292 1.0125966707 10.1501080237 
O 14.1960446330 0.9817900770 12.3397850661 
H 13.7521664315 1.3297387663 11.5274389039 
H 15.1220346904 1.3275902388 12.3213304989 
O 2.7440021320 5.4862697219 10.0797562788 
H 2.3001804780 5.1532352706 10.8978574476 
H 3.6741861871 5.1479302111 10.1071176320 
O 1.4584604380 9.0945480826 12.2992573792 
H 1.9483906372 8.7635420540 13.0908354682 
H 1.9430367219 8.7513881638 11.5086972619 
H 4.3814014077 8.7666874846 10.1100018941 
O 2.7751382798 8.1908052794 10.1242694061 
H 2.7634251870 7.2020335620 10.0991675704 
H 2.3064626663 8.4930256229 9.3069677475 
O 6.5399838917 5.4850793547 12.3045008531 
H 7.4811928547 5.1788309827 12.3053588987 
H 6.5720543756 6.4737278724 12.3058702957 
H 9.9219611630 5.1840296743 10.8933264845 
O 5.3054226138 9.1182937331 10.1376413933 
H 5.7540652440 8.7785379597 9.3243249971 
O 6.5674927885 8.1827410053 12.3298901352 
H 6.1218217374 8.5280860918 11.5173229470 
H 7.4957108788 8.5224655769 12.3042006746 
O 9.1126687115 9.0895748818 12.2899909847 
H 9.5795380895 8.7883117551 13.1094607208 
H 9.9308909389 8.5241623711 10.9031122686 
H 9.9256758640 8.5248695815 9.3204017380 
O 14.1993998132 5.4594719248 12.3415506014 
H 14.1886991581 6.4486501301 12.3152925934 
H 13.7354726100 5.1568678529 11.5215157141 
O 10.3957807443 5.4846749566 10.0789404203 
H 10.3844383380 6.4743123668 10.1039803992 
O 12.9528492582 9.0632479084 10.1049053328 
H 12.0091377981 8.7663414650 10.1061003472 
O 10.4099364266 8.1774183825 10.1100308178 
O 14.1816656167 8.1566037519 12.3302471639 
H 15.1101814467 8.4963169195 12.3012228820 
H 13.7390491572 8.4942576847 11.5125295675 
H 4.3872581208 12.1169578927 10.1007882916 
O 1.5146218850 11.7979059624 12.2910687937 
H 0.5730788062 12.1016822691 12.2997723289 
H 1.4875457975 10.8094093775 12.2914640685 
O 2.7687979834 12.6870650138 10.0756103876 
H 2.7503950713 13.6759484149 10.1066801880 
H 2.2995571817 12.3743644481 10.8890180485 
H 6.5803870880 14.4224885813 12.3039118633 
O 5.3266200714 11.8070349225 10.1049786599 
H 5.2919634635 10.8172554526 10.1115926609 
O 6.5909858537 12.7085732027 12.2948290625 
H 6.1085901412 12.3625508770 13.0850629611 
H 6.1087192085 12.3641085071 11.5019047441 
H 9.1216947051 10.0780607525 12.3124427149 
O 9.1314864345 11.7944600417 12.3334847814 
H 8.2013696110 12.1278126324 12.3018759419 
H 9.5768457894 12.1251378767 11.5142080887 
H 9.9382068134 12.3606099971 9.3118621592 
H 10.3857167820 14.4035808411 10.1216194774 
O 12.9193844637 11.7627407099 10.1080188748 
H 13.4004520633 12.1044822968 9.3143554742 
H 13.4026783446 12.1078563207 10.8986735625 
O 14.2202684347 12.6679371439 12.2924378776 
H 14.2077554027 13.6571503825 12.3144916380 
H 13.7492695995 12.3656592218 13.1075582081 
H 12.9336967502 10.0526043362 10.1098299945 
O 10.3814069348 12.6949345951 10.1315684196 
H 11.3094990507 12.3564384326 10.1036098448 
H 4.3804660335 4.9264471793 14.5003371747 
O 2.7343784817 1.0196231908 14.5254862373 
H 3.6738958670 1.3289236794 14.5220356192 
O 1.5010269060 4.6025358189 16.6699456924 
H 0.5738747018 4.9423950700 16.7015008395 
H 1.9442417486 4.9292055873 17.4919885210 
O 1.4637084021 1.8923818664 16.7285251920 
H 1.4810782472 2.8800674117 16.6967681817 
H 1.9395133229 1.5803107826 15.9183693631 
O 5.2907673930 1.8920089445 14.5447680097 
O 5.3069127367 4.5816121027 14.5284651839 
H 5.7528386703 4.9232704339 13.7145266702 
H 5.7620904720 1.5889336893 13.7302699752 
H 5.3007076398 2.8816670876 14.5182841937 
O 6.5932914767 0.9826813896 16.7280575200 
H 6.1109893007 1.3306092211 15.9380800440 
H 6.1087882492 1.3207580801 17.5217654558 
O 9.1152418014 4.6174905184 16.6932206527 
H 9.5890069969 4.9190321948 17.5088796285 
H 9.1262634862 3.6282802028 16.7152092206 
O 9.1253805335 1.9159279030 16.7421770993 
H 9.5670220913 1.5740460430 15.9256406833 
H 8.1967980323 1.5763630501 16.7225682552 
O 10.3594893104 1.0211543060 14.5229597849 
O 12.9016243528 4.6050185722 14.5429863130 
H 12.9121737627 3.6159939263 14.5260242298 
H 13.3737714673 4.9017725658 13.7255112779 
H 11.3029324304 1.3205076340 14.5228411590 
O 12.8953560569 1.9054605697 14.5277570446 
H 13.3850872917 1.5694975199 13.7369231528 
H 13.3840028246 1.5678967001 15.3197784671 
O 14.1644977974 1.0170125998 16.7246671671 
H 15.1050559747 1.3238909584 16.7131609684 
O 2.7671932466 5.4894841878 14.4721114541 
H 2.2962242017 5.1920198965 15.2905402503 
H 2.7585830300 6.4787865206 14.4937085373 
O 2.7579825798 8.1874692903 14.4878983326 
H 2.3144801890 8.5213840834 15.3063681706 
H 3.6884423916 8.5201226793 14.5205740885 
O 1.5158648611 9.0771426951 16.7159215737 
H 0.5726124702 8.7774827447 16.7101713294 
O 5.2990909282 9.0962002968 14.5231854068 
O 6.5698927176 5.5022849061 16.7352173227 
H 7.4993479031 5.1648649651 16.7088938203 
H 6.1251621957 5.1649925099 15.9193247895 
H 9.9220993215 5.1886903242 15.3094634622 
H 5.7863846339 8.7622292764 15.3156464823 
H 5.7836544058 8.7570222561 13.7303143850 
O 6.6131605234 8.2064880501 16.7158327666 
H 6.1393146291 8.5051435084 17.5309630853 
H 6.5935893241 7.2176418903 16.7303480712 
H 9.9340727524 8.5310919385 15.3071452664 
O 9.1486141320 9.1161958767 16.6974383082 
H 8.2223217874 8.7707397029 16.7291389921 
H 9.5988537218 8.7703258709 17.5088168708 
O 10.3638518278 5.5335149617 14.4937701182 
H 11.2882933988 5.1827332091 14.5163630105 
O 14.2101685065 5.5358999951 16.7158275814 
H 13.7331470928 5.1893176256 17.5094322828 
H 13.7262441725 5.1856687337 15.9279087321 
O 10.3943194352 8.2254496539 14.4856962331 
H 10.3816576133 7.2360437255 14.5132683662 
O 12.9411881164 9.1105424249 14.5284650380 
H 12.0099099187 8.7761104290 14.5062911789 
H 13.3806290145 8.7621814689 13.7140168629 
O 14.2183013632 8.2281790682 16.7282171385 
H 14.1917821233 7.2387105881 16.7119251421 
H 13.7412577018 8.5302194677 15.9155027078 
H 2.7673921454 14.4105455842 14.5103062433 
O 2.7577269596 12.7110129586 14.5119107145 
H 2.3140230985 12.3636242520 13.6995701508 
H 3.6829007609 12.3605477749 14.4934301119 
O 1.4761584979 11.7789262797 16.7058583138 
H 1.9633538189 12.1209513601 17.4957723877 
H 1.9569835068 12.1188330746 15.9121735428 
H 1.4950140947 10.0657138700 16.7135707964 
O 5.2877211973 11.7933977785 14.4827830768 
H 5.7625427372 12.0997190186 15.2947961025 
H 5.3063778109 10.8046168527 14.5081241471 
O 6.5513362849 12.6635476088 16.6993722146 
H 6.5748403857 13.6524757270 16.7127025936 
H 7.4932653014 12.3631727650 16.7070330947 
H 9.9345692570 12.3551715312 15.3078901680 
H 9.9342771456 12.3639993675 13.7236071616 
O 9.1123366886 11.8017581147 16.6962682143 
H 9.1326457860 10.8117724896 16.7223575968 
H 9.5825527854 12.1106454760 17.5081657102 
H 10.3838301310 14.4122459412 14.5186749356 
H 14.1967385173 14.4077622930 16.7162606446 
O 12.9614884669 11.8046590093 14.5219846120 
H 12.0196370027 12.1081922612 14.5189946685 
H 12.9332583600 10.8153564086 14.5177891171 
O 10.4206058746 12.6983134794 14.5174982549 
O 14.1945186005 12.7047422658 16.7342824546 
H 15.1235687488 12.3670570472 16.7084997226 
H 13.7499774431 12.3598492951 15.9196031309 

