&CONTROL
   calculation      = 'vc-relax'
   tstress          = .true.
   tprnfor          = .true.
   outdir           = './'
   pseudo_dir       = '/global/homes/p/ppiaggi/QuantumEspresso/pseudos'
/
&SYSTEM
   ecutwfc          = 150
   input_dft        = 'SCAN'
   ntyp             = 2
   nat              = 384
   ibrav            = 0
/
&ELECTRONS
   mixing_beta      = 0.5
   startingpot      = 'atomic'
   startingwfc      = 'atomic+random'
/
&IONS
/
&CELL
/

ATOMIC_SPECIES
O 15.999400004115753 O_ONCV_PBE_sr.upf
H 1.0079400002592869 H_ONCV_PBE_sr.upf

K_POINTS gamma

CELL_PARAMETERS angstrom
15.24719919227661 0.00000000000000 0.00000000000000
0.00000000000000 14.37896361037060 0.00000000000000
0.00000000000000 0.00000000000000 17.61918521581555

ATOMIC_POSITIONS angstrom
O 1.5243776033 1.8804573268 3.5200146281 
H 0.5836731408 1.5751940587 3.5059055439 
H 1.4946320429 2.8702749932 3.5111356685 
H 4.4057773528 1.5752170689 1.3144361869 
O 1.5079719857 4.5662482572 3.5225558841 
H 0.5830306742 4.9175095547 3.4985586751 
H 1.9564758670 4.9136119514 2.7124001097 
O 2.8064047478 0.9863540238 1.3231431802 
H 2.3151626491 1.3249028535 0.5350018769 
H 2.3221427842 1.3227893227 2.1171839600 
O 5.3086746841 4.6220765958 1.3156002676 
H 5.3224226152 3.6337667271 1.2954566045 
H 5.7769443102 4.9231370528 0.4964973935 
O 5.3349608621 1.9126873140 1.2820937416 
H 5.7826504120 1.5717725366 2.0947572780 
O 6.5833774269 0.9716630279 3.4877404448 
H 6.1404389339 1.3170560988 4.3006221675 
H 7.5097723686 1.3184440266 3.5075204835 
O 9.1130336867 1.8818712951 3.4790932770 
H 9.5822864951 1.5765589277 4.2945959747 
H 9.1276793987 2.8713442562 3.5063916291 
O 9.1461063749 4.5765977717 3.4822885868 
H 8.2206968533 4.9229208245 3.5098952211 
H 9.5936382599 4.9216888684 4.2945338642 
H 9.9275656395 1.3298805438 2.0882981178 
O 12.9317198099 4.6117661482 1.2654465864 
H 13.4019560106 4.9146431573 2.0815584787 
H 12.9429904067 3.6224696600 1.2881289390 
O 12.9457405214 1.9122990837 1.3081532618 
H 13.3875403726 1.5687323198 0.4909319759 
H 12.0170374631 1.5737034425 1.2860014128 
O 10.3891570788 1.0226525007 1.2684105449 
O 14.2104798500 1.0196234614 3.5133109312 
H 13.7438597499 1.3219066496 2.6949958234 
O 2.7558585789 5.4844160593 1.3135800164 
H 2.7790829061 6.4733749714 1.3122334985 
H 3.6982126331 5.1827278650 1.3044355373 
O 1.5133626129 9.0663276692 3.4931863800 
H 0.5692700409 8.7665132843 3.4890453043 
H 4.3977054315 8.7716039327 1.3044887800 
O 2.7944855328 8.1839396428 1.3082750226 
H 2.3096504259 8.5205134413 0.5160570230 
H 2.3024087186 8.5195873942 2.0991806884 
O 6.5982546270 5.4851259569 3.5277783037 
H 6.1281756819 5.1868065029 2.7102856203 
H 6.5801523959 6.4751639684 3.5126834074 
H 9.9505197877 5.1588362658 2.0807130159 
O 5.3279256831 9.1066070035 1.3256096303 
H 5.7678192687 8.7592967159 0.5101456619 
O 6.5989203214 8.1758651316 3.5148480564 
H 6.1047347421 8.5126674778 4.3041518112 
H 6.1197014386 8.5139586182 2.7183369628 
O 9.1301062537 9.0954274016 3.5327846474 
H 9.5606552963 8.7554195345 2.7095796461 
H 8.1986661101 8.7615685179 3.5156840074 
H 9.9147534818 8.5036944381 0.5013338158 
O 14.2231309223 5.4829226615 3.4695998209 
H 13.7468483593 5.1833737695 4.2836498828 
H 14.2093661737 6.4724269641 3.4881973069 
O 10.3876196342 5.4982933798 1.2618223943 
H 11.3184059996 5.1648273598 1.2844589061 
O 12.9365524183 9.0780740566 1.3055157073 
H 11.9959965427 8.7733733068 1.3070254929 
O 10.3775320158 8.2014144311 1.3215815903 
H 10.3765006350 7.2126989245 1.2909623093 
O 14.2283739251 8.1783681424 3.4849033103 
H 13.7477183665 8.5093115869 4.2842274253 
H 13.7324217115 8.5219532318 2.7001760039 
H 1.4889768995 10.0556623645 3.4940135737 
O 1.4693469663 11.7681012917 3.4956964828 
H 1.9520409481 12.0978154100 4.2931202981 
H 1.9636813919 12.1084438555 2.7087955381 
O 2.7560335506 12.6641988399 1.3153753736 
H 2.7879061718 13.6530586172 1.3186689235 
H 3.6963292451 12.3578362624 1.3181986203 
O 5.3176162573 11.7961294635 1.3385548306 
H 5.7766562815 12.1069150320 0.5194354565 
H 5.3286802830 10.8068150874 1.3052225453 
O 6.5906497294 12.6546776407 3.5463184765 
H 6.1288789518 12.3505445996 2.7255819261 
H 6.5862573688 13.6437104758 3.5182965491 
O 9.1477414032 11.7878538194 3.5305450140 
H 8.2059735887 12.0907039610 3.5301248103 
H 9.1203331062 10.7984448863 3.5208700809 
H 9.9262498249 12.3654582616 2.1119382548 
O 10.3623148407 12.7085069120 1.2940885082 
H 10.3764329147 14.4125277143 1.2993108840 
H 14.1958414841 14.4096107351 3.4935529744 
O 12.8876977820 11.7875195267 1.2994139893 
H 13.3745138175 12.1270235861 0.5087307016 
H 13.3794676185 12.1172666855 2.0915896804 
O 14.1912917391 12.6971761272 3.4806522084 
H 15.1204149594 12.3577532544 3.4957111438 
H 13.7555588697 12.3505207347 4.2977658796 
H 12.9078864122 10.0663932810 1.3022363721 
H 11.2928322492 12.3723602577 1.3145693527 
H 4.3947358623 4.9172420526 5.6919198543 
O 2.7868271583 1.0107741662 5.7256662936 
H 2.3108160160 1.3188188066 4.9138312164 
H 4.4052401381 1.5809083486 5.7118930514 
O 1.4762964036 4.5681878596 7.8968883674 
H 1.9593896123 4.9110397484 7.1048449921 
H 1.9506168972 4.9259148179 8.6878455158 
O 1.4803726819 1.8814864172 7.9310304948 
H 1.4979512616 2.8716485353 7.9026550770 
H 1.9530682538 1.5739614152 7.1185127948 
O 5.3237150229 4.5761273196 5.7183129986 
H 5.7687086931 4.9182510534 4.9033898737 
O 5.3455119057 1.8867254904 5.7187806140 
H 5.3156561311 2.8765717180 5.7098497459 
O 6.6075483385 0.9914921897 7.9086823310 
H 6.1208389019 1.3304117172 8.6998944306 
H 6.1230013691 1.3366508428 7.1171528460 
H 9.9397422936 1.3270183873 6.4995785302 
O 9.1112011714 4.6161622657 7.8691443478 
H 9.1258739778 3.6270840893 7.8960456336 
H 9.5736050580 4.9213488725 8.6894734652 
O 9.1371027691 1.9206912844 7.8909708625 
H 8.2083302310 1.5813538722 7.9159737806 
H 9.5777561318 1.5844378425 8.7094205264 
O 10.3837761116 0.9833491851 5.6859272109 
O 12.9460824281 4.5875428961 5.6664500009 
H 12.0190898101 4.9326943942 5.6922145726 
H 13.3896681372 4.9247421788 6.4839758821 
H 11.3100823382 1.3275741245 5.7091214595 
O 12.9323879431 1.8881408020 5.7276831840 
H 13.3975468631 1.5851713549 4.9091974082 
H 12.9410642621 2.8773418955 5.7008548944 
O 14.1910740721 0.9854342170 7.9315333310 
H 13.7507905745 1.3282415034 7.1141936356 
H 15.1194863819 1.3274927866 7.9085604931 
O 2.7904160417 5.4694623144 5.7177594882 
H 2.7701517710 6.4592289738 5.6901502677 
H 2.3165094113 5.1625318582 4.9054848413 
O 2.7814620342 8.1623697284 5.6894063712 
H 2.2986665270 8.5069693778 6.4814358406 
H 2.2968614839 8.5053675392 4.8975568930 
H 4.3816236237 8.7536754446 5.6951534419 
O 1.4812584716 9.0675481645 7.8719227767 
H 1.9531248478 8.7745321237 8.6908249511 
O 6.5649785024 5.5016100754 7.9214926405 
H 7.4942376860 5.1631777804 7.8940082517 
H 6.1218351919 5.1637972065 7.1037837938 
H 9.9378612218 5.1818441031 6.4910203020 
O 5.3237966761 9.0562728152 5.7011113839 
O 6.5908608520 8.1961539820 7.9290522719 
H 6.5818088309 7.2068363719 7.9101089596 
H 6.1183717654 8.4922219379 7.1125504010 
H 9.9340308796 8.5189106637 6.5014084282 
H 9.9288510162 8.5168257783 4.9167089626 
O 9.1309883369 9.1085252955 7.8869749601 
H 9.5772634993 8.7609131319 8.6993210987 
H 8.2043945448 8.7638320247 7.9085948595 
O 10.4118962131 5.4888068625 5.6777770354 
H 10.3960545785 6.4782379972 5.7042796115 
O 14.1771928584 5.4622640912 7.8997087848 
H 15.1182359339 5.1567959768 7.8996516615 
H 14.2096097540 6.4521803078 7.9032498159 
O 10.4205473885 8.1835026192 5.7081837075 
O 12.9553444825 9.0865300882 5.6787861142 
H 12.0222379258 8.7586533185 5.7043941115 
H 13.3945789543 8.7432096646 6.4954608192 
O 14.2010656120 8.1527557366 7.8815541605 
H 15.1286334913 8.4981363753 7.9019265711 
H 13.7588603035 8.4989938416 8.6955208083 
H 2.7659113093 14.4021162523 5.7037164280 
O 2.7484622374 12.6775938711 5.6895473191 
H 2.3034746163 12.3410579620 6.5056974120 
H 3.6780593390 12.3416335800 5.7204180152 
O 1.4941979047 11.7583106755 7.8971634574 
H 1.9415281551 12.0967942605 8.7116635086 
H 0.5688565751 12.1070488639 7.9261375394 
H 1.4841295801 10.0575557433 7.8963274223 
O 5.2855562240 11.7574337004 5.7284050391 
H 5.7692088628 12.1044569474 6.5182674192 
H 5.7673529321 12.0996816199 4.9352188408 
H 5.2977755379 10.0452709614 5.7112799720 
O 6.5613673973 12.6756267189 7.9156636984 
H 6.5889946995 13.6651641911 7.9074062592 
H 7.5018503115 12.3712907235 7.9126330715 
H 9.9450276073 12.3484199185 4.9221310409 
O 9.1212194699 11.8024283374 7.9306545511 
H 9.1284317507 10.8129926281 7.9063080558 
H 9.5962235220 12.1042683069 7.1167670365 
O 12.9777279117 11.7872588287 5.7118816566 
H 12.9489437697 10.7984528826 5.7092230098 
H 12.0361899913 12.0908786158 5.7113461752 
O 10.4244264816 12.6594011384 5.7302638551 
H 10.4037526017 13.6476353013 5.7043965606 
O 14.2108911368 12.6727118593 7.9462675416 
H 14.1952137361 13.6621745824 7.9188316044 
H 13.7466678015 12.3629673512 7.1296322395 
O 1.4936130677 1.9165788542 12.3519804060 
H 1.9326561357 1.5730176804 11.5358779851 
H 0.5660031902 1.5736552874 12.3312161273 
H 4.3770944337 4.9429578726 10.0906262828 
O 1.4829387896 4.6291005735 12.2938553075 
H 1.9449551731 4.9321552446 13.1147347511 
H 1.4894767339 3.6408231057 12.3223974766 
O 2.7378217278 0.9777696456 10.1346331074 
H 3.6652646408 1.3195647546 10.1103386961 
H 2.2973198249 1.3203641320 9.3178707662 
O 5.2819879434 1.8907869326 10.0833924246 
O 5.3026519516 4.5979058120 10.1192587879 
H 5.7526974855 4.9309848825 9.3036836076 
H 5.7584402703 1.6031176547 10.9023189350 
H 5.2865241823 2.8794948573 10.0941856416 
O 6.5541718604 1.0234979224 12.2753795574 
H 7.4863463772 1.3534523684 12.3042709875 
H 6.1149212259 1.3541241102 13.0978751789 
O 9.0953850186 1.9229584613 12.3073355687 
H 9.5735420845 1.5778790257 13.1018184190 
H 9.5842414737 1.5773925145 11.5191017963 
O 9.0925359155 4.6105689274 12.2819546026 
H 9.1153188972 3.6205684942 12.3039420943 
H 9.5714945279 4.9168083993 13.0906934532 
O 10.3690615090 1.0179322548 10.1227065444 
O 12.8956070347 4.5719665952 10.0973672549 
H 13.3822326231 4.9148484175 10.8872122722 
H 13.3839696942 4.9070139106 9.3051550342 
O 12.9195786021 1.8732723829 10.1294084900 
H 12.9303570494 2.8622794731 10.1031269221 
H 13.3929434792 1.5687985540 9.3149319156 
H 11.3123819858 1.3183658856 10.1179913440 
O 14.2022878178 1.0088174888 12.3457562419 
H 13.7391608548 1.3096076940 11.5249818374 
O 2.7577576699 5.5074924594 10.0731009567 
H 2.7518877993 6.4963534204 10.0973933771 
H 2.2986565114 5.2052534333 10.8949128302 
O 1.5086912318 9.1224963249 12.2940222582 
H 0.5829670245 8.7747796731 12.3091339468 
H 1.9504478695 8.7731280850 13.1078473677 
O 2.7556143792 8.2071771247 10.0806919015 
H 3.6856622019 8.5416913807 10.1110643575 
H 2.3130904329 8.5427148301 10.8993751300 
O 5.2992157432 9.1202256547 10.1143395344 
O 6.5562663012 5.5037666190 12.3374329143 
H 6.1111923680 5.1710805822 11.5200052547 
H 7.4837140173 5.1592835043 12.3100198378 
H 9.9139280997 5.1682257192 10.8922961555 
H 5.7778561558 8.7716047776 10.9064132198 
H 5.7775417246 8.7689799565 9.3233630915 
O 6.5907854420 8.2062930224 12.3004420228 
H 6.1176484378 8.5118348157 13.1129524569 
H 6.5757326551 7.2176240896 12.3243371123 
O 9.1452634992 9.0909976661 12.2877801552 
H 8.2072260029 8.7785483060 12.3020439702 
H 9.9355233620 8.5193234205 10.8823658167 
O 10.3582393844 5.5096638131 10.0768162915 
O 14.1872317974 5.5165367982 12.2760017854 
H 15.1175001967 5.1812288792 12.3016732329 
H 13.7474547725 5.1774304309 13.0951024030 
H 11.2855590778 5.1670693204 10.1032063099 
O 12.9646065712 9.0712956561 10.0987510297 
H 12.0231622479 8.7680344489 10.0942976480 
O 10.4051354230 8.2053378325 10.0704066998 
H 10.3801137131 7.2164767629 10.1003840213 
O 14.2229842090 8.2114056628 12.3195630369 
H 14.2034681065 7.2219802785 12.2997266154 
H 13.7492422973 8.5138872149 11.5052214612 
O 1.4663310884 11.8147969218 12.3414683190 
H 1.9389750420 12.1171431334 11.5255069382 
H 1.4843261057 10.8252593591 12.3212078788 
O 2.7250007854 12.6667145067 10.1245371035 
H 3.6667627461 12.3632341363 10.1181229221 
H 2.7517650416 13.6562872268 10.1160183168 
O 5.2801854967 11.8109869718 10.1338740188 
H 5.3080634686 10.8219527334 10.1116629890 
H 5.7573375331 12.1194310018 9.3246451650 
O 6.5595604737 12.6926615939 12.3365008733 
H 6.0911313436 12.3854401707 11.5206241566 
H 6.5533664907 13.6809540976 12.3045973395 
H 9.1078478459 10.0799798146 12.2976535024 
O 9.1084562660 11.7834760486 12.2982967115 
H 8.1815248318 12.1257103188 12.3221349253 
H 9.5524513401 12.1198637301 13.1159594841 
H 9.9203833652 12.3591012741 10.9084395213 
H 9.9344279720 12.3572134663 9.3241741668 
H 10.3935618642 14.4081127669 10.1206255374 
H 14.1914930277 14.3973673351 12.3244411488 
O 12.9492034091 11.7649142568 10.1400778261 
H 12.0196757380 12.1008537513 10.1155345131 
H 13.3903295785 12.1110958068 9.3241568933 
O 14.1796879241 12.7008451893 12.3514166446 
H 15.1105298021 12.3638801705 12.3247986850 
H 13.7399927491 12.3594228662 11.5338776670 
H 12.9390261898 10.0607195513 10.1016378256 
O 10.4142001891 12.6945733147 10.1206056358 
O 2.7710199008 1.0296738988 14.5548614479 
H 2.2948071279 1.3310404247 13.7414028701 
H 4.3827328549 1.5792912419 14.5239740257 
O 1.4818365457 4.6146148496 16.7137887384 
H 1.4965632360 3.6247167629 16.7402940519 
H 1.9543921247 4.9196321009 17.5275331701 
O 1.5097402230 1.9185271862 16.7617567354 
H 0.5803223545 1.5816636531 16.7336314323 
H 1.9504630556 1.5827685050 15.9419430115 
O 5.2893719876 4.6202784180 14.5371495973 
H 5.7610789269 4.9171609555 13.7188556376 
H 5.2987572238 3.6306365853 14.5175203346 
O 5.3108500491 1.9203662945 14.4936825437 
H 5.7613538032 1.5812547646 15.3066414686 
O 6.5676462776 0.9964192565 16.6851766011 
H 6.1290528298 1.3315372358 17.5058109009 
H 7.4968564661 1.3366154161 16.7064570109 
H 9.9273980746 1.3124894378 15.2989758822 
O 9.0988441901 4.5803754383 16.6939814163 
H 9.5864367010 4.9138627425 17.4869855189 
H 9.5836893682 4.9248711754 15.9034793216 
O 9.1017600392 1.8863352288 16.6797609413 
H 9.5673435677 1.5826984242 17.4984534231 
H 9.1193902241 2.8756858660 16.7009173100 
O 12.9308867127 4.6225270807 14.4792229777 
H 13.4006978469 4.9255397895 15.2961178412 
H 12.9426646709 3.6336532471 14.5030078773 
O 10.3968932758 1.0109232667 14.4821607691 
O 12.9492448692 1.9192400109 14.5308694578 
H 13.3908928780 1.5685366124 13.7165060497 
H 12.0223485895 1.5764381646 14.5108239417 
O 14.2116792374 1.0261599865 16.7387554247 
H 13.7481227448 1.3298270239 15.9184793520 
O 2.7404770615 5.5180719973 14.5069106061 
H 2.3025381145 5.1729037265 15.3237237390 
H 3.6692560554 5.1785402041 14.5256060159 
O 2.7255659496 8.2087811778 14.5095731701 
H 2.7513787235 7.2192740956 14.5165226270 
H 3.6666216522 8.5116395122 14.5157374123 
O 1.4974226769 9.1139259065 16.7357465100 
H 1.9381015114 8.7710473562 15.9197340956 
H 0.5708511220 8.7678296477 16.7175522650 
O 5.2854693232 9.0781331735 14.5006988798 
O 6.5644677511 5.5033073426 16.7322781717 
H 6.1196079763 5.1651384899 15.9152039963 
H 7.4940245297 5.1655685931 16.7025282509 
H 5.7538612651 8.7675883636 15.3142478038 
O 6.5471944102 8.1957467100 16.7249437685 
H 6.5732135995 7.2063997884 16.7179784000 
H 7.4883444650 8.4979120858 16.7109219974 
H 9.9510058351 8.5377528048 13.6947815364 
O 9.1069907242 9.0651244533 16.7183673576 
H 9.5823029885 8.7694586471 15.9030285906 
O 10.3684186462 5.4910153283 14.5009932819 
O 10.3911863388 8.1944521172 14.5112589089 
H 11.3095785500 5.1862671231 14.5001455374 
H 10.3986597080 6.4793264446 14.4988837739 
O 14.1906291711 5.5155718095 16.6835871446 
H 13.7451845780 5.1724800234 17.4982048105 
H 15.1189948371 5.1749716092 16.7162696866 
H 11.3189684240 8.5358214980 14.4935390717 
O 12.9312161739 9.1182913086 14.5097729016 
H 13.4120346771 8.7784495496 13.7152921652 
H 13.4106940618 8.7663522961 15.3003731301 
O 14.2111427983 8.2033685692 16.6949721475 
H 14.1990902108 7.2133360414 16.7145741222 
H 13.7380159447 8.5053390510 17.5078980280 
H 2.7487484408 14.4190071168 14.5342091354 
H 4.3850826210 12.1264365628 14.5251502229 
O 2.7629976295 12.7162904500 14.5292001191 
H 2.2799473957 12.3693084812 15.3192518583 
H 2.2824185506 12.3761209331 13.7343210895 
O 1.4713687526 11.8066522977 16.7148704675 
H 1.9503638946 12.1024792763 17.5274508493 
H 1.4834510481 10.8169108852 16.7265359003 
O 5.3132983812 11.7888480332 14.5421385439 
H 5.7476448993 12.1351021535 13.7232975053 
H 5.3069439948 10.0658699104 14.5272106880 
O 6.5867562003 12.6720501612 16.7389330639 
H 6.1121980811 12.3726722969 15.9235472495 
H 6.5781409057 13.6610072824 16.7159164128 
H 9.9276789748 12.3621910035 15.3157535198 
O 9.1237516992 11.7676322768 16.7063701678 
H 8.1957318756 12.1089773982 16.7263334428 
H 9.5637237818 12.1099151373 17.5226539727 
H 9.1175399925 10.0542713995 16.7031787874 
H 10.3875472590 14.4004446144 14.5054992140 
H 14.1967850063 14.4146331062 16.7131415370 
O 12.9122273959 11.8111688436 14.5487499827 
H 12.9399127045 10.8220527169 14.5259333345 
H 13.3851718654 12.1166344084 13.7342438795 
O 10.3705492178 12.6953023589 14.4969960492 
H 11.2999681138 12.3570428520 14.5258829362 
O 14.1776653559 12.7178109844 16.7395109485 
H 15.1049302430 12.3744949087 16.7207064193 
H 13.7365782944 12.3744812060 15.9221696524 

