&CONTROL
   calculation      = 'vc-relax'
   tstress          = .true.
   tprnfor          = .true.
   outdir           = './'
   pseudo_dir       = '/global/homes/p/ppiaggi/QuantumEspresso/pseudos'
/
&SYSTEM
   ecutwfc          = 150
   input_dft        = 'SCAN'
   ntyp             = 2
   nat              = 384
   ibrav            = 0
/
&ELECTRONS
   mixing_beta      = 0.5
   startingpot      = 'atomic'
   startingwfc      = 'atomic+random'
/
&IONS
/
&CELL
/

ATOMIC_SPECIES
O 15.999400004115753 O_ONCV_PBE_sr.upf
H 1.0079400002592869 H_ONCV_PBE_sr.upf

K_POINTS gamma

CELL_PARAMETERS angstrom
15.25726945449007 0.00000000000000 0.00000000000000
0.00000000000000 14.37556052579385 0.00000000000000
0.00000000000000 0.00000000000000 17.61076202616722

ATOMIC_POSITIONS angstrom
O 1.4770191297 1.9279683537 3.5058431604 
H 1.9599163745 1.5686473237 2.7193065963 
H 1.9526090270 1.5860252744 4.3022813110 
H 4.4062543468 4.9183119865 1.2922854217 
O 1.5017721977 4.6184929742 3.5201675410 
H 1.9747312147 4.9211508271 2.7070413132 
H 1.5153500040 3.6287549466 3.4979438862 
O 2.7313734483 0.9970814373 1.3288782277 
H 3.6734321540 1.2986759731 1.3161238025 
O 5.2863700199 1.8726665463 1.3246506329 
O 5.3312592535 4.5668595854 1.3284008198 
H 5.7859136955 4.9079515410 0.5188052658 
H 5.7593945299 1.5679420517 0.5106273338 
H 5.3035072442 2.8619395650 1.3003182298 
O 6.5696287544 1.0252616242 3.5316050634 
H 6.1010869608 1.3241677204 2.7125563986 
O 9.1187169464 1.9294137452 3.4889963835 
H 9.5599942799 1.5841434326 4.3036427090 
H 8.1903994389 1.5909232600 3.5122592272 
O 9.1519178709 4.6285970221 3.5078682747 
H 9.1183075732 3.6398052649 3.5083811392 
H 8.2107346167 4.9344136099 3.5083126302 
H 9.9273488388 1.3348412146 2.0926844465 
O 10.3727264342 0.9945589110 1.2785562135 
O 12.9456368380 4.5967810678 1.2682741701 
H 12.0165656503 4.9370592010 1.3033645638 
H 13.3956668449 4.9298288348 2.0829967959 
O 12.9065936966 1.9024696064 1.2839515109 
H 13.3855363207 1.6022259691 2.0965439357 
H 12.9244873013 2.8920822948 1.3006973289 
H 11.3000351954 1.3384244669 1.3055105713 
O 14.1845496901 1.0411008519 3.4933532164 
H 15.1254723341 1.3463309212 3.4993328663 
O 2.8076099749 5.4863016187 1.3059696667 
H 2.7896937080 6.4751277091 1.2811725840 
H 2.3280954510 5.1804341411 0.4967496250 
O 1.5006566841 9.1086009776 3.4753063315 
H 1.9448508971 8.7705532124 4.2909350603 
H 0.5741151823 8.7615072141 3.4961738692 
H 4.3882381174 8.7591375256 1.2826580231 
O 2.7939880267 8.1849535629 1.2865768392 
H 2.3095040794 8.5226125247 2.0795984926 
H 2.3058472139 8.5289312567 0.4965513922 
O 6.6066747201 5.5125913032 3.5081824000 
H 6.1241430513 5.1757224383 4.3030170599 
H 6.1228162188 5.1638778675 2.7188509495 
H 9.9411973417 5.1850818699 2.1079105363 
O 5.3319615234 9.0600856431 1.2838266519 
O 6.6083795512 8.2050820235 3.5119030421 
H 6.5918117373 7.2155798896 3.4964714982 
H 6.1321823892 8.5023429793 2.6981294199 
O 9.1360673649 9.1148386041 3.5285172333 
H 8.2090520218 8.7683969443 3.4980082093 
H 9.5826224799 8.7807394601 2.7125036107 
H 9.9408999356 8.5215532372 0.5040466467 
O 10.3893425578 8.1887202011 1.3202778788 
O 14.2107393636 5.5045776581 3.4775526721 
H 13.7656804321 5.1667391000 4.2933976341 
H 15.1397358468 5.1668495935 3.5049711205 
O 10.4141228464 5.4869399332 1.2921433760 
H 10.3983229985 6.4759040041 1.3107831278 
O 12.9290599263 9.1198873273 1.2933451425 
H 13.4112578532 8.7718085535 0.5042168039 
H 13.4089708833 8.7706717447 2.0844392870 
H 11.3160948398 8.5306852318 1.2906471409 
O 14.2284461221 8.1988493809 3.4730793867 
H 14.2184105853 7.2096765341 3.4974472679 
H 13.7581325078 8.5023019641 4.2892018932 
H 2.7548716487 14.3830192127 1.3215956922 
O 5.2646986950 11.7647054825 1.2908028075 
O 1.4714009851 11.8086889248 3.5289967855 
H 1.4801997962 10.8194460210 3.5082326531 
H 1.9427109474 12.1033323766 2.7097788962 
O 2.7336371764 12.6783963981 1.3245939703 
H 3.6641700579 12.3423096884 1.2943853323 
H 2.2909488023 12.3485332847 0.5041905136 
H 6.5533350212 14.4117174122 3.5135002983 
H 5.7422288081 12.1048765708 2.0860546721 
H 5.7526915155 12.1106850136 0.5017885678 
O 6.5341085395 12.7033260595 3.4894940895 
H 6.0937485416 12.3592095203 4.3055702179 
H 7.4620005946 12.3634741040 3.5092693343 
H 5.3037994821 10.0489626234 1.2814571964 
O 9.0853546599 11.8071851081 3.5165032288 
H 9.1056803391 10.8177398643 3.4964592975 
H 9.5525347182 12.1110736881 2.6998439584 
O 10.3478624718 12.6749047160 1.2819141051 
H 14.2138556601 14.4274847749 3.4959472552 
O 12.9091819651 11.8174796023 1.2777066059 
H 13.3811474940 12.1278828682 2.0893956698 
H 12.9375659582 10.8288427375 1.3029177657 
O 14.1898818185 12.7216093414 3.4796485826 
H 13.7455775466 12.3763484492 4.2921298030 
H 15.1163467340 12.3754025345 3.5024638703 
H 11.2883410720 12.3684693297 1.2896333731 
H 10.3801422748 13.6638740510 1.2872124648 
O 2.7737138433 1.0240337809 5.7029703518 
H 2.3013321787 1.3264997330 6.5170590045 
H 4.3895086856 1.5826842074 5.7113231114 
O 1.5017870517 4.5867345503 7.9264089574 
H 0.5750243775 4.9322983437 7.9066780992 
H 1.9431651617 4.9306786610 7.1116605499 
O 1.5132106171 1.8924982875 7.9284507172 
H 0.5742740469 1.5843095057 7.9214616076 
H 1.4815809695 2.8813766210 7.9193457276 
O 5.3013892554 4.6230289866 5.6955504312 
H 5.3071303031 3.6335262174 5.7103830352 
H 5.7723943432 4.9147776288 6.5147871812 
O 5.3168951588 1.9247744925 5.7276264380 
H 5.7553882680 1.5823642601 4.9087725344 
O 6.5655446518 0.9869738580 7.9298242411 
H 6.1233326907 1.3286784096 7.1140235605 
H 7.4949847954 1.3259947590 7.9060832323 
H 9.9227004732 1.3221717172 6.5073600159 
O 9.1173068383 4.5703185529 7.9177102895 
H 9.6033976052 4.9204532004 7.1314233977 
H 9.5955361248 4.9095940544 8.7144366288 
O 9.1035049534 1.8770716262 7.8864543943 
H 9.5762226487 1.5725519319 8.7015751327 
H 9.1279782827 2.8663111173 7.9075243338 
O 10.3639071043 0.9812174687 5.6894863492 
O 12.9602368852 4.5788885267 5.6868096100 
H 13.4034903359 4.9245849399 6.5003736880 
H 12.0341682744 4.9261580150 5.7089397933 
H 11.2914658409 1.3219226571 5.7103556056 
O 12.9119821082 1.8829300442 5.7224008962 
H 12.9321028418 2.8721497873 5.7070279794 
H 13.3881333349 1.5857492045 4.9081446262 
O 14.2065953602 1.0158351541 7.9302452474 
H 13.7381794210 1.3193807086 7.1140338015 
O 2.7539345992 5.5268832373 5.7196816985 
H 3.6828941687 5.1884667987 5.7034072275 
H 2.3184703353 5.1826690927 4.9001998374 
O 2.7419649132 8.2202276891 5.7031284602 
H 2.7678570397 7.2303298029 5.7029451414 
H 3.6844796097 8.5215798738 5.7005263798 
O 1.4678733361 9.1082300300 7.8945861762 
H 1.9600502326 8.7718405579 8.6840830312 
H 1.9553535608 8.7740537385 7.1005278814 
O 5.2879134713 9.1085900527 5.6965587494 
O 6.5723200322 5.4942238066 7.9050305422 
H 7.5004683909 5.1554352727 7.9269168890 
H 6.1342062967 5.1559925720 8.7238448721 
H 9.9478182698 5.1906816781 4.9232437474 
H 5.7739494476 8.7669994724 4.9067412378 
H 5.7655060008 8.7576410065 6.4890899066 
O 6.5801216534 8.1935522904 7.8730296024 
H 6.1195377991 8.5052848664 8.6903935636 
H 6.5720056893 7.2052824773 7.9083491543 
H 9.9459310055 8.5195833642 4.9157862492 
H 9.9401213446 8.5206904517 6.4971786535 
O 9.1411551040 9.0670464383 7.8957669266 
H 8.2012729030 8.7593044465 7.8932937027 
O 10.4249008279 5.4901234308 5.7354431713 
H 10.4123290604 6.4795658433 5.7152198294 
O 14.2190108617 5.4908822836 7.8864759410 
H 14.2024924326 6.4799489484 7.9059730566 
H 13.7444953077 5.1882719365 8.6995438073 
O 10.4325550925 8.1831466288 5.7082348294 
O 12.9693712163 9.0712226729 5.6910423359 
H 12.0273010424 8.7669671562 5.6986551794 
O 14.1925768482 8.1907995258 7.9301041148 
H 15.1228359320 8.5255804114 7.9007342323 
H 13.7514585099 8.5253440919 7.1107020034 
H 2.7515506197 14.4102745101 5.7184249298 
O 2.7282405095 12.7036020592 5.7342284229 
H 2.2880384090 12.3631986722 4.9161179262 
H 3.6547596982 12.3581011948 5.7140301693 
O 1.4568559065 11.8041523926 7.9305426902 
H 1.9292062564 12.1101889561 7.1162301970 
H 1.4788410368 10.8147391044 7.9054843205 
O 5.2714528874 11.7996986700 5.6919990382 
H 5.2965706453 10.8101760430 5.7081888310 
H 5.7452975891 12.1017646903 6.5050238914 
O 6.5377867024 12.6641530015 7.9272780116 
H 7.4787944829 12.3565924910 7.9235037781 
H 6.5718633248 13.6533042380 7.9224826633 
H 9.9068602435 12.3631789305 4.9072690445 
O 9.0754507890 11.7634687253 7.9128668239 
H 9.5632345126 12.1130334867 8.7008039529 
H 9.5518463385 12.1055906867 7.1166264933 
H 9.1081156359 10.0562528190 7.9039749307 
H 10.3684741300 13.6496328726 5.7064357441 
H 14.1918716441 14.4024085403 7.9070608892 
O 12.9330719458 11.7721858345 5.6790564295 
H 13.3674878864 12.1081368733 6.5014452146 
H 12.0017546612 12.1019825634 5.7034451048 
O 10.3760606112 12.6602602140 5.7255720131 
H 12.9386364540 10.0597371081 5.6918207564 
O 14.1697068376 12.6940509697 7.8944373949 
H 15.0967729300 12.3501816012 7.9190865855 
H 13.7237490871 12.3555175573 8.7096377135 
O 1.4997638933 1.8893761302 12.3556267645 
H 1.5125828314 2.8781418444 12.3223146381 
H 1.9649045341 1.5802273251 11.5392180088 
H 4.3983809795 4.9034344030 10.1315977485 
H 4.3839241251 1.5647913291 10.1135972566 
O 1.5243475715 4.5856956036 12.3343006868 
H 0.5934782149 4.9195750962 12.3084122250 
H 1.9617601761 4.9226949158 11.5133998268 
O 2.7804771387 1.0174890565 10.1435911579 
H 2.3081411025 1.3304526060 9.3325944307 
O 5.3389494343 4.5990847640 10.1471601128 
H 5.3086654242 3.6098751241 10.1399724360 
O 5.3140197888 1.9032449967 10.1399607250 
H 5.7567822644 1.5699117773 9.3209564112 
O 6.5655607719 0.9943817192 12.3360336275 
H 6.1169392755 1.3278672840 11.5192600810 
H 7.4924989593 1.3362428015 12.3042663208 
O 9.1147071088 1.8966592757 12.2709862687 
H 9.1291576967 2.8855193678 12.2999881805 
H 9.5795802973 1.5902063048 13.0882782917 
O 9.1400795675 4.5956653443 12.2981872551 
H 8.2101531411 4.9324286379 12.3311643640 
H 9.5859909762 4.9286813185 13.1162640355 
H 9.9273896888 1.3349673250 10.8997426119 
O 10.3663245470 0.9861415284 10.0831078184 
O 12.9585719510 4.6158160018 10.1042322322 
H 12.9319509288 3.6269410992 10.1095320204 
H 12.0162500723 4.9183815971 10.1182315976 
O 12.9109859791 1.9141747489 10.1125823790 
H 13.3965401610 1.5754838093 10.9040708166 
H 13.3944089012 1.5728327136 9.3201770542 
H 11.2960009366 1.3203760879 10.1064358653 
O 14.2037984475 0.9896917184 12.2967241751 
H 13.7562669684 1.3292922876 13.1112728533 
H 15.1314906655 1.3290851939 12.3260180654 
O 2.7786912354 5.4750928075 10.1253376612 
H 2.3056871760 5.1715875563 9.3106941411 
H 2.7683953131 6.4633893680 10.0973724992 
O 1.5184011198 9.0981163256 12.2827161089 
H 0.5914660386 8.7505293990 12.3134815388 
H 1.9667608808 8.7612010607 13.0968012895 
O 2.7639211330 8.1859514098 10.0700154780 
H 3.6928673653 8.5252183929 10.0961629500 
H 2.3227588868 8.5207462260 10.8892102109 
O 5.3030804548 9.0794447124 10.0845458901 
O 6.6041396810 5.5091045049 12.3321999397 
H 6.1153334817 5.1583445368 11.5461347313 
H 6.1243204172 5.1741450173 13.1295774234 
H 9.9330324641 5.1804160639 10.9230914049 
H 5.7718980916 8.7696215297 10.8981220587 
O 6.6014083230 8.1976324662 12.2907541146 
H 6.1279366764 8.5047713149 13.1029749515 
H 6.5836614769 7.2081308680 12.3165237829 
O 9.1322543002 9.0988851850 12.3314623040 
H 9.5760231555 8.7613299719 11.5149713986 
H 8.2044098777 8.7536085002 12.3076466173 
H 9.9414933315 8.5147001966 9.3087412145 
O 10.3863614116 8.1802664621 10.1254448476 
O 14.2463518707 5.5036462655 12.3027561993 
H 13.7610710213 5.1698551569 11.5084457559 
H 13.7545320271 5.1601949128 13.0906759301 
O 10.4051671365 5.4773621576 10.1048797829 
H 10.3944715567 6.4660617096 10.1193223379 
O 12.9176994820 9.1153581138 10.1220308756 
H 13.4003602726 8.7823040390 9.3260051226 
H 13.4095982126 8.7711728195 10.9069858778 
H 11.3127136099 8.5249585234 10.1048098254 
O 14.2505757088 8.1964189233 12.2928649528 
H 14.2336819476 7.2067273394 12.3125529055 
H 13.7735041300 8.4967198175 13.1054371524 
H 2.7557501689 14.4043878279 10.1131974017 
O 5.2705486127 11.7724868950 10.1220098250 
O 1.4723354793 11.8031190762 12.3252330361 
H 1.9424144205 12.1065532737 11.5083970193 
H 1.4918037591 10.8144421159 12.3048597320 
O 2.7326832878 12.6972308971 10.1292282068 
H 3.6607984782 12.3557710722 10.1045779028 
H 2.2881779181 12.3576796056 9.3129828315 
H 5.7583673164 12.1147283566 9.3314421482 
H 5.7507686235 12.1166628802 10.9149856702 
O 6.5369037935 12.6746477635 12.3278077226 
H 7.4762251491 12.3654362008 12.3199547494 
H 6.5714560378 13.6638990829 12.3240815429 
H 5.3121128465 10.0687835171 10.1185047521 
O 9.0924347615 11.7929403812 12.3278721902 
H 9.1117061110 10.8036199439 12.3027256883 
H 9.5572819040 12.1002284874 11.5106750044 
O 10.3429792452 12.6707709647 10.0932570119 
O 12.8962499920 11.8069179263 10.0986057316 
H 12.9236278626 10.8178180941 10.1254971670 
H 13.3735787445 12.1183548575 10.9075605611 
O 14.1738792359 12.6742198555 12.3083241808 
H 15.1136260623 12.3650791892 12.3066396727 
H 14.2075758986 13.6634385436 12.3121368329 
H 11.2843254105 12.3660524466 10.1042184158 
H 10.3711316011 13.6603197116 10.0991269204 
H 4.3941353410 4.9258447151 14.5299773485 
O 2.7739637416 1.0187395639 14.5617365061 
H 2.3125024259 1.3293176633 13.7431117303 
H 4.3835660274 1.5742759305 14.5256306505 
O 1.5218148757 4.6127528639 16.7063152988 
H 0.5791369884 4.9140098405 16.7006273858 
H 1.4958293361 3.6239540481 16.7179586999 
O 1.4605276884 1.9100264491 16.7400098497 
H 1.9389525925 1.5641757090 17.5328820169 
H 1.9462621957 1.5652283585 15.9501958398 
O 5.3353784267 4.6178608524 14.5367483991 
H 5.3019105726 3.6292829177 14.5294789389 
O 5.3121141929 1.9163224934 14.5450488436 
H 5.7516924955 1.5791416251 13.7257519512 
O 6.5652742519 0.9866949579 16.7382501173 
H 6.1216886943 1.3292869889 15.9230070324 
H 7.4946810378 1.3245159113 16.7126618741 
H 9.9301705201 1.3223648375 15.3006474353 
O 9.1553857991 4.5748519875 16.6970907384 
H 9.5978909708 4.9167798309 17.5125507787 
H 8.2279629598 4.9195662326 16.7223745110 
O 9.1112892827 1.8812735227 16.6845288047 
H 9.1293114714 2.8704534550 16.7100737085 
H 9.5794745662 1.5768907390 17.5016720212 
O 12.9697242952 4.6069324937 14.4832095074 
H 12.9347803946 3.6176450239 14.4886037523 
H 12.0293402973 4.9155098344 14.4952311755 
O 10.3966571662 1.0173135035 14.4824043650 
O 12.9385996342 1.9126844898 14.4828480894 
H 13.3753481381 1.5838468159 15.3074364887 
H 12.0097223707 1.5733998490 14.5066879283 
O 14.1697309759 1.0081953039 16.7019740887 
H 15.1008016999 1.3389777604 16.7360616557 
H 13.7232859693 1.3464575744 17.5184013835 
O 2.8006893709 5.5140647888 14.5208499327 
H 2.3201088364 5.1740956962 13.7256831138 
H 2.3113516463 5.1691443134 15.3092492535 
O 2.7882889342 8.2048127062 14.4946201182 
H 2.3112265017 8.5145173176 15.3036626617 
H 2.7677410105 7.2154040689 14.5209615476 
H 4.4001532659 8.7602815600 14.5175098792 
O 1.5184144246 9.0801696870 16.7151488708 
H 0.5794540435 8.7656534733 16.7083770429 
O 6.6173543191 5.4756323040 16.7473335035 
H 6.1342446032 5.1716380967 15.9393057014 
H 6.5970221155 6.4651648872 16.7239160474 
H 9.9502199455 5.1699871885 15.3131524097 
O 5.3406461249 9.0673299036 14.5116984975 
O 6.6145390579 8.1658982322 16.7088774082 
H 6.1219141113 8.5078741564 17.4966367104 
H 6.1313173217 8.5052231835 15.9146314791 
H 9.9348492008 8.5113993064 13.7249966955 
H 9.9327448380 8.5140983933 15.3074269277 
O 9.1419453145 9.0685877385 16.7091587432 
H 8.2003192237 8.7614220599 16.7085183653 
O 10.4191334237 5.4778517616 14.4976768714 
H 10.3999857530 6.4670472822 14.5229270979 
O 14.2406174317 5.5002866316 16.6865035319 
H 13.7474403514 5.1671218238 17.4762924364 
H 13.7574824391 5.1605261567 15.8928691423 
O 10.4218143547 8.1741502722 14.5169884617 
O 12.9636343108 9.0623664326 14.5067760597 
H 12.0221886816 8.7586315423 14.5095952742 
O 14.2364237645 8.1962344879 16.7211651058 
H 13.7600386096 8.5025672306 15.9098451694 
H 14.2213252408 7.2073713954 16.6933064665 
H 2.7575803823 14.4051976858 14.5271796360 
O 5.2614601521 11.7671214210 14.5186458567 
O 2.7324718526 12.7015940946 14.5271074897 
H 3.6604341194 12.3593066414 14.5051995237 
H 2.2920017978 12.3662311251 13.7070947946 
O 1.4833586176 11.7751252349 16.7187815413 
H 1.9282207705 12.1156492545 15.9026163869 
H 0.5571322721 12.1185601765 16.6942372333 
H 1.4799580095 10.0690494979 16.7080846600 
H 5.7445803312 12.1093685136 15.3108136666 
H 5.7472579991 12.1123462418 13.7291527933 
H 5.3065368983 10.0562377026 14.5183814037 
O 6.5332196993 12.6665952254 16.7192851040 
H 7.4753658138 12.3616445831 16.7150809483 
H 6.5656177265 13.6558412155 16.7174378701 
H 9.9167419756 12.3439206640 13.7061427005 
O 9.0710149344 11.7736826844 16.7132557822 
H 9.5608434789 12.1198469886 17.5013309479 
H 9.5531496344 12.1080133023 15.9172527688 
H 9.1100418313 10.0573149652 16.7107902796 
O 10.3580124489 12.6850903697 14.5232599649 
H 10.3782276825 14.4047179007 14.5063093414 
O 12.9010259377 11.7646749705 14.4990559708 
H 13.3831459424 12.1120526268 13.7083144676 
H 13.3765169591 12.1177758384 15.2911854420 
H 11.2870217393 12.3476460081 14.4995920459 
H 12.9358409370 10.0510301501 14.5048072119 
O 14.1908667577 12.6864538821 16.6768487209 
H 13.7272206175 12.3823146241 17.4957909935 
H 14.1796868288 13.6753738569 16.7043483315 

