&CONTROL
   calculation      = 'vc-relax'
   tstress          = .true.
   tprnfor          = .true.
   outdir           = './'
   pseudo_dir       = '/global/homes/p/ppiaggi/QuantumEspresso/pseudos'
/
&SYSTEM
   ecutwfc          = 150
   input_dft        = 'SCAN'
   ntyp             = 2
   nat              = 384
   ibrav            = 0
/
&ELECTRONS
   mixing_beta      = 0.5
   startingpot      = 'atomic'
   startingwfc      = 'atomic+random'
/
&IONS
/
&CELL
/

ATOMIC_SPECIES
O 15.999400004115753 O_ONCV_PBE_sr.upf
H 1.0079400002592869 H_ONCV_PBE_sr.upf

K_POINTS gamma

CELL_PARAMETERS angstrom
15.24983635867509 0.00000000000000 0.00000000000000
0.00000000000000 14.37340372101279 0.00000000000000
0.00000000000000 0.00000000000000 17.61368573571718

ATOMIC_POSITIONS angstrom
O 1.4703316290 1.8794893687 3.4802050738 
H 1.4755464222 2.8690949035 3.4993684878 
H 1.9402580435 1.5832452607 4.2989190871 
H 4.3939135310 1.5810782053 1.3039370830 
O 1.4438640850 4.5745002108 3.4981465279 
H 1.9343325192 4.9184659911 2.7105517872 
H 1.9241227915 4.9190857309 4.2923704235 
O 2.7775626103 1.0126053417 1.2888039665 
H 2.3014935376 1.3116358988 2.1029683964 
O 5.2937292017 4.6131509502 1.3258793581 
H 5.3070081351 3.6228795568 1.3030558610 
H 5.7617200825 4.9157709831 0.5080351727 
O 5.3198675458 1.9268735238 1.3276071691 
H 5.7646341964 1.5853906026 0.5116297192 
O 6.5734836681 1.0025892124 3.5429032420 
H 6.1318749029 1.3404376875 2.7260039006 
H 7.5024009138 1.3428999894 3.5168020092 
O 9.1065285396 1.9031634503 3.5300775826 
H 9.1185203716 2.8927128437 3.5021573241 
H 9.5774287121 1.5953482923 2.7154121989 
O 9.1211684399 4.5956055885 3.5185132454 
H 9.5658596540 4.9358948104 2.7023734812 
H 8.1915086946 4.9316512000 3.4933212245 
O 10.3645174408 1.0228137190 1.3174177533 
O 12.8831519785 4.5744718544 1.2975200809 
H 13.3744533749 4.9197561022 2.0851837725 
H 13.3672764539 4.9117534584 0.5029827620 
O 12.9130547750 1.8836674385 1.3345842625 
H 13.3898673347 1.5844605418 0.5205203590 
H 12.9217767327 2.8735185414 1.3102186601 
H 11.3073367434 1.3244269123 1.3156233187 
O 14.1870605164 0.9793761056 3.5188921397 
H 13.7413219754 1.3255500426 2.7057050832 
H 15.1158470629 1.3216954976 3.4970808653 
O 2.7351645532 5.4799491896 1.3161018756 
H 3.6759595728 5.1749013898 1.3142634113 
H 2.7650619144 6.4694361798 1.3150474755 
O 1.4770072161 9.0603946481 3.4964784814 
H 1.9480322266 8.7590589876 4.3138954605 
H 4.4014694088 8.7638026776 1.3119699588 
O 2.7929771424 8.1756089798 1.3106844670 
H 2.3064361192 8.5195082911 0.5203797528 
H 2.3094573079 8.5119843259 2.1048731760 
O 6.5824885735 5.5085916991 3.5038696644 
H 6.1032639296 5.1669034665 2.7077888894 
H 6.0963463269 5.1648544417 4.2930347042 
O 10.3547434393 5.4834816557 1.2987949580 
O 5.3306525285 9.1018165037 1.2875429031 
H 5.7707006151 8.7630203982 2.1067876857 
O 6.5524847008 8.2057779574 3.5146040984 
H 6.5692787743 7.2162585385 3.5132453014 
H 7.4972768041 8.4995084770 3.5123289227 
O 9.0957793962 9.0883038627 3.5018421114 
H 9.5821234113 8.7540851157 2.7087618151 
H 9.5843340614 8.7496592208 4.2922568122 
H 9.9474243926 8.5271192065 0.4951245234 
O 10.3903136569 8.1819725668 1.3087502622 
O 14.1579036032 5.4711726402 3.4824253256 
H 15.0996024359 5.1637459829 3.4873068944 
H 14.1899791480 6.4603144265 3.4823430035 
H 10.3900315919 6.4721513305 1.2928063438 
H 11.2950381166 5.1730607682 1.2971715332 
O 12.9361902338 9.0796541275 1.2656240552 
H 13.3998438203 8.7747971131 2.0855052831 
H 11.3199033907 8.5188938363 1.2842885173 
O 14.1853584403 8.1714911855 3.4668407405 
H 15.1172484710 8.5028701459 3.4979892689 
H 13.7455266905 8.5150011580 4.2834343386 
H 2.7691826183 14.3975583956 1.3069415078 
H 1.4873568505 10.0491585462 3.5176961664 
O 1.5002972146 11.7668874213 3.5301886233 
H 0.5721949319 12.1096267271 3.5058604189 
H 1.9469487940 12.1030831144 2.7143360046 
O 2.7576764819 12.6802593819 1.3239792912 
H 3.6860076026 12.3416121402 1.2989673535 
H 2.3139948286 12.3419945846 0.5073879743 
O 5.3103565630 11.7923728873 1.2785046731 
H 5.3256667459 10.8026327940 1.3060506506 
H 5.7721532530 12.1003619528 2.0966295647 
O 6.5887333512 12.6708967036 3.4984758753 
H 6.5777395466 13.6593762283 3.5237009904 
H 6.1137081984 12.3658205755 4.3102874344 
O 9.1371773827 11.7909294475 3.5026589900 
H 8.1966220074 12.0975164368 3.5065745614 
H 9.1106111064 10.8021923677 3.5031845258 
H 9.9319513329 12.3507633626 2.1057970731 
H 9.9366278960 12.3594393332 0.5217418816 
H 10.3886844286 14.4072591276 1.3183169141 
O 12.9607593221 11.7795819240 1.2784568238 
H 13.4019862682 12.1111907153 2.1001516246 
H 12.0302373239 12.1136667653 1.3122345494 
O 14.2164982662 12.6637097235 3.4875805656 
H 13.7404498809 12.3630003041 4.3017092975 
H 14.1981064042 13.6538930459 3.5048951716 
H 12.9493200742 10.0685573650 1.2897562675 
O 10.4183014937 12.6974434511 1.3168157007 
O 2.7414236188 0.9975182260 5.6863778811 
H 2.3035906350 1.3393838213 6.5054143282 
H 3.6705849532 1.3342709800 5.7089001785 
O 1.4554320444 4.5809546848 7.8934938748 
H 1.9444816612 4.9276460476 8.6803602891 
H 1.9353127861 4.9209411315 7.0975758427 
O 1.4900444680 1.8953757532 7.8889004164 
H 1.4993030021 2.8860014321 7.9108061215 
H 1.9611384928 1.5926908145 8.7044914728 
O 5.2676406720 4.6145156509 5.6870103803 
O 5.2838281435 1.9250160553 5.7166771955 
H 5.7432724974 4.9274955155 6.4962930850 
H 5.2909264965 3.6252069773 5.7172428264 
H 5.7747115139 1.5882360525 4.9263078796 
H 5.7681981266 1.5849920049 6.5089403276 
O 6.6031517758 1.0127786289 7.8923771489 
H 6.1307505428 1.3159028737 8.7068409701 
H 9.9230301091 1.3425016963 4.9107222971 
O 9.0963204993 4.6063159930 7.9453963005 
H 9.1136467950 3.6170554798 7.9292978373 
H 9.5680822362 4.9038071805 7.1280627040 
O 9.1388508019 1.9079626520 7.9476111918 
H 9.5789688827 1.5764369868 7.1260965653 
H 8.2111419775 1.5638292016 7.9210150126 
O 10.3668561482 0.9959028939 5.7244805162 
O 12.8959427405 4.5974605370 5.7063057989 
H 12.9178178589 3.6079338178 5.6868741139 
H 13.3681994527 4.9027601624 4.8921167675 
H 11.2982071960 1.3276091005 5.6963728393 
O 12.9049879501 1.9031617390 5.6979265936 
H 13.4008010890 1.5745743191 6.4876376017 
H 13.3890191467 1.5668932373 4.9029953944 
O 14.2073695293 0.9995571114 7.8833991800 
H 13.7672230430 1.3396867955 8.7002255074 
H 15.1360593583 1.3412890984 7.9063878309 
O 2.7137755288 5.4787371777 5.6883836968 
H 3.6551076814 5.1725686073 5.6944525614 
H 2.7456832487 6.4685471458 5.6948266292 
O 2.7466593450 8.1694965165 5.6889199750 
H 2.3090091734 8.5099139158 6.5081651625 
H 3.6762165335 8.5080905773 5.7085980302 
O 1.5244477805 9.0699506009 7.9202648320 
H 0.5840715956 8.7648035657 7.9188262515 
O 5.2750956884 9.1023605408 5.7040411568 
O 6.5463912404 5.4900346829 7.8948268448 
H 7.4848266472 5.1766115289 7.9035814621 
H 6.5840974396 6.4789962414 7.8949838227 
H 9.9200940353 5.1689320256 4.9270789281 
H 5.7669944556 8.7695426560 6.4945356706 
H 5.7636647263 8.7652675048 4.9123474406 
O 6.5872396614 8.1839351966 7.8764067404 
H 6.1513300350 8.5183902918 8.6996398552 
H 7.5158960641 8.5228575935 7.8971552003 
H 9.9513335780 8.5121388549 6.5003251722 
O 9.1312503278 9.0896078424 7.8834180393 
H 9.5932288720 8.7885865470 8.7056013736 
O 10.3684268459 5.4970635210 5.7445961266 
H 11.2949490644 5.1503128220 5.7078846901 
O 14.1565024588 5.4970738724 7.9148597148 
H 15.0854840035 5.1608915496 7.8876037955 
H 13.7140475052 5.1586926617 7.0977563621 
O 10.4158950675 8.2018972852 5.6838984926 
H 10.4020910960 7.2132884849 5.7160603567 
O 12.9488056541 9.1186410651 5.6759901857 
H 13.3912923212 8.7768463612 6.4919593606 
H 12.0225448201 8.7716305417 5.7014403099 
O 14.2092512817 8.2052704533 7.8829721031 
H 14.1798028235 7.2170789611 7.9001604962 
H 13.7383657789 8.5107598906 8.6979493138 
H 4.3741743547 12.1031556135 5.7157078840 
O 2.7592687683 12.6634680601 5.7311807240 
H 2.7438799732 13.6523221323 5.7089124567 
H 2.2899178817 12.3590213611 4.9142552136 
O 1.5050332358 11.7579135412 7.9353077280 
H 1.9460438390 12.0979219147 7.1175223006 
H 0.5771651626 12.1013170883 7.9100950865 
H 1.4947634261 10.0600010878 7.9193495846 
H 6.5810866878 14.3964231599 7.9086883860 
O 5.3158902774 11.8004322605 5.7175210239 
H 5.2909344550 10.8110550346 5.7109717923 
O 6.5988648034 12.6976372767 7.9033713448 
H 6.1207005304 12.3517451047 8.6980736107 
H 6.1103084440 12.3549743004 7.1139490252 
H 9.9274780101 12.3672588904 4.9117701122 
O 9.1453767849 11.7928503092 7.9246616156 
H 8.2142262285 12.1246998925 7.9026249038 
H 9.5835554559 12.1344945018 7.1052942269 
H 9.1401501628 10.0784738656 7.9069050328 
O 12.9541625337 11.8094449787 5.7074171476 
H 12.0141758661 12.1173826534 5.7078929620 
H 12.9248496996 10.8200275357 5.7044030480 
O 10.3957450661 12.6794168595 5.7249518201 
H 10.3752007831 13.6691232972 5.6965170050 
O 14.2261260398 12.6714796950 7.9269565034 
H 14.2159510790 13.6606439110 7.9051623381 
H 13.7509462767 12.3712310688 7.1128018514 
O 1.5288830007 1.9036537330 12.3123444617 
H 1.5013160133 2.8927544453 12.3003556547 
H 0.5882929666 1.5981409115 12.3174829581 
H 4.3829203029 4.9211391028 10.0903225828 
H 4.4049161188 1.5807464659 10.1146782348 
O 1.5059125049 4.6007497504 12.2614144264 
H 1.9403472784 4.9374019077 13.0849648449 
H 0.5748882870 4.9324536577 12.2882411800 
O 2.7841093463 1.0226334413 10.0970095983 
H 2.3129208887 1.3331041056 10.9099919151 
O 5.3102300895 4.5760623335 10.1113125032 
H 5.7532848921 4.9246135674 9.2987516201 
O 5.3446168515 1.8885627941 10.1120527693 
H 5.3100900098 2.8781813703 10.1042126237 
O 6.5766148210 0.9960225985 12.3328230122 
H 7.5025446853 1.3410557469 12.3122754852 
H 6.1330306961 1.3404588254 11.5179079794 
O 9.1133779468 1.9373405908 12.3122682831 
H 9.6010616889 1.5912786483 11.5242367474 
H 9.5921150166 1.5962869866 13.1074967091 
O 9.0891955281 4.6291071272 12.2884655487 
H 9.5636673687 4.9323367469 13.1025439948 
H 9.1163728103 3.6398330758 12.3056488605 
H 9.9483494555 1.3219436177 9.3249682345 
O 12.9226612442 4.5951032286 10.1323568738 
H 13.3574926832 4.9235387653 9.3068903266 
H 11.9939536211 4.9333356935 10.1106179051 
O 12.9698034101 1.8960171290 10.1238823612 
H 12.0298197662 1.5849969958 10.1192691845 
H 12.9324760112 2.8843884854 10.1227879872 
O 10.4250306172 1.0232071355 10.1394555836 
O 14.2234563294 1.0246055866 12.3473712093 
H 13.7537458219 1.3320089758 11.5323193037 
O 2.7781748896 5.4895611434 10.0670553578 
H 2.7750126888 6.4789018326 10.0863935242 
H 2.3037372285 5.1943328674 10.8839913250 
O 1.5198727380 9.0959561658 12.2971285787 
H 1.9601531237 8.7525506151 13.1130363958 
H 0.5913594924 8.7541639054 12.3141752097 
H 4.4162806332 8.7615708481 10.1061250525 
O 2.8105103670 8.1872157554 10.1006838851 
H 2.3265082170 8.5140622453 10.8986685888 
H 2.3126597846 8.5273328365 9.3148350150 
O 6.5517541990 5.5026439974 12.3280637475 
H 7.4830954210 5.1671027805 12.3034046102 
H 6.1120242774 5.1655942395 11.5092727648 
H 9.9077877586 5.2017475242 10.9037315314 
H 9.9081466049 5.1907009084 9.3214412835 
O 5.3469600145 9.0957192320 10.0838728434 
H 5.7825826394 8.7600636951 10.9067517377 
O 6.5835309210 8.2022990644 12.2978200140 
H 6.5695624462 7.2130207751 12.3179803740 
H 6.1122489186 8.5064655684 13.1136085271 
O 9.1140812894 9.1099585668 12.2885063661 
H 8.1869429070 8.7640084203 12.3133290678 
H 9.5609629792 8.7658513616 13.1015088201 
H 9.9242078853 8.5337382996 10.9072390145 
O 14.2090938469 5.5177206931 12.3039831346 
H 13.7201340197 5.1800502862 11.5128254878 
H 13.7273385297 5.1782053661 13.0974534207 
O 10.3894388531 5.5446218701 10.1105651491 
O 12.9638324564 9.0764044769 10.1113600414 
H 12.0208661924 8.7762441275 10.1170431760 
O 10.4033943817 8.2292055640 10.0966652218 
H 10.3795952245 7.2390260405 10.1165737877 
O 14.2315386204 8.2063240945 12.3290395760 
H 14.2048296286 7.2168552395 12.3045239296 
H 13.7588163439 8.5155127686 11.5167116015 
H 2.7635319697 14.4079162543 10.1200759757 
O 1.4880325439 11.8039565912 12.3297570591 
H 1.5015622450 10.8151606188 12.3100940885 
H 1.9591548917 12.1043011790 11.5123065825 
O 2.7557896244 12.6904728297 10.1291112543 
H 2.3086676731 12.3463796590 9.3159545015 
H 3.6820817729 12.3461113126 10.1037004281 
O 5.3054817935 11.7884242666 10.0783793199 
H 5.7674519964 12.0915936284 10.8985009461 
H 5.3237570207 10.7988243302 10.0994749492 
O 6.5825764879 12.6589464978 12.2915090753 
H 6.5722308012 13.6470558727 12.3170906275 
H 6.1149275473 12.3535202957 13.1079724371 
O 9.1490532059 11.7991894172 12.2907531105 
H 9.1163554491 10.8096341809 12.2974999888 
H 8.2081629574 12.1033996687 12.2983264234 
H 9.9379759581 12.3590471170 10.9009645572 
H 9.9520957074 12.3775122081 9.3182160341 
H 10.4108383934 14.4068872764 10.1219439389 
H 14.2089601546 14.4083036104 12.3200122369 
O 12.9658345367 11.7672475062 10.1341260401 
H 12.0376343654 12.1081110549 10.1102142166 
H 13.4062890712 12.1073702644 9.3166781700 
O 14.2029724898 12.7068660865 12.3399932828 
H 13.7615336920 12.3668393984 11.5227768985 
H 15.1316683509 12.3671912844 12.3138427347 
H 12.9405267393 10.0660999896 10.1114046297 
O 10.4351606951 12.7035793659 10.1170994445 
H 4.3728199891 4.9090303852 14.4967349308 
O 2.7616001025 0.9846873694 14.5349486174 
H 2.3204400959 1.3327378428 13.7212068303 
H 3.6924225143 1.3202571774 14.5107384415 
O 1.4681219709 4.6147525291 16.6993481941 
H 1.4936573517 3.6257163195 16.7242039558 
H 1.9412784595 4.9238252248 17.5106168970 
O 1.4832907999 1.9226199406 16.7201822935 
H 1.9635583975 1.5780008344 17.5133454276 
H 1.9672439497 1.5785291840 15.9294544975 
O 5.2985447922 1.8748733421 14.5353678293 
O 5.3006392215 4.5685762279 14.5278338330 
H 5.7475905729 4.9065077302 13.7127635150 
H 5.2995211818 2.8645492026 14.5082464627 
H 5.7698242768 1.5756707941 13.7177506669 
O 6.5812929040 1.0231771168 16.7462872523 
H 6.1134916660 1.3215810495 15.9272625300 
H 9.9309657476 1.3235951441 15.3181524484 
O 9.1042671680 4.6096044284 16.6791988270 
H 9.5724122045 4.9169992321 17.4947626039 
H 9.1223733716 3.6200147334 16.7070950926 
O 9.1289652015 1.9179583753 16.7017605483 
H 9.5728248474 1.5786885884 17.5181070093 
H 8.2005564989 1.5774666413 16.7291108287 
O 12.9016145139 4.6169909573 14.4917722488 
H 12.9195351840 3.6277624980 14.5104646336 
H 13.3740669578 4.9169025979 15.3082350036 
O 10.4021956782 1.0246393976 14.5016144143 
O 12.9506186276 1.9185195605 14.5369982144 
H 13.3963854519 1.5742072852 13.7227433776 
H 12.0232524393 1.5759990077 14.5146122275 
O 14.1969557277 1.0080168473 16.7490316146 
H 13.7548411268 1.3428856081 15.9303248905 
H 15.1265779582 1.3447575567 16.7237044312 
O 2.7548848669 5.4758785382 14.4740310776 
H 2.7543083543 6.4658126019 14.5066776058 
H 2.2870671150 5.1734269203 15.2906953934 
O 2.7608384931 8.1634819128 14.5023315707 
H 2.3185065507 8.5029696837 15.3191791791 
H 3.6883191331 8.5065720993 14.5258835620 
O 1.5272392163 9.0678257198 16.7308572894 
H 0.5857436440 8.7633268832 16.7214190294 
O 5.2963997792 9.0709404085 14.4938133813 
O 6.5598949654 5.5010043832 16.7334566256 
H 6.1110560116 5.1593838926 15.9219337220 
H 7.4877306556 5.1595727640 16.7053680438 
H 9.9234763954 5.1734211077 15.2972912115 
H 5.7652289372 8.7686774177 15.3112766188 
O 6.5940627006 8.2084368856 16.7012345358 
H 6.1229005021 8.5110026759 17.5172156916 
H 6.5775065111 7.2200350428 16.7200316648 
O 9.1293916313 9.1207036116 16.7245208102 
H 9.5719222051 8.7783767589 15.9088305641 
H 8.2030593279 8.7740506407 16.7044211257 
O 10.3606366419 8.2062693655 14.5024412558 
H 10.3833997967 7.2161929868 14.5027669487 
O 10.3649291488 5.5180363217 14.4812779921 
H 11.2937124952 5.1762810208 14.5070584188 
O 14.1651101885 5.4701634421 16.7119205820 
H 15.1057747809 5.1628499523 16.7194645994 
H 14.1965794591 6.4594322677 16.7166093227 
H 11.3023178704 8.5080852807 14.5059617296 
O 12.9190967061 9.0740156775 14.5338690515 
H 13.3946480287 8.7718483245 13.7216834821 
O 14.2361484944 8.1639689999 16.7082586448 
H 13.7530646550 8.5109722047 15.9182050506 
H 13.7569332588 8.5142011102 17.5000920302 
H 4.3861279773 12.1071428254 14.5251453646 
O 2.7657909752 12.6687262617 14.5475546469 
H 2.7590176254 13.6586988401 14.5224394899 
H 2.3025107687 12.3675056182 13.7272372011 
O 1.5089391278 11.7597785689 16.7329172384 
H 0.5804967848 12.1010155973 16.7134874241 
H 1.9486518873 12.1070029438 15.9159453253 
H 1.4981591125 10.0577418718 16.7209471291 
H 6.5698280210 14.4069668515 16.7282357546 
O 5.3134342799 11.7650171188 14.4974063861 
H 5.7598266242 12.1076858779 15.3108779136 
H 5.3063175272 10.0603474267 14.5194592518 
O 6.5630952421 12.7023470899 16.7003980915 
H 6.1234312811 12.3537521580 17.5159439441 
H 7.4932532785 12.3674170006 16.7217569911 
H 9.9372628301 12.3551447853 13.7124228633 
O 9.1147719697 11.8136050300 16.7427722430 
H 9.5807615988 12.1123165517 15.9227528581 
H 9.1190769014 10.8239994817 16.7170834634 
H 10.3886133812 14.4090694716 14.5172646323 
O 12.9126975357 11.7679294831 14.5135367700 
H 13.3972811088 12.1077992547 15.3057019399 
H 13.4002702630 12.1098069342 13.7231785836 
O 10.3776696205 12.6935312953 14.5301119390 
H 11.3060203417 12.3535723952 14.5081441036 
H 12.9347818720 10.0634580749 14.5107106572 
O 14.2184900957 12.6704666825 16.6986113711 
H 13.7488262594 12.3719328272 17.5174183382 
H 14.2119222610 13.6587340750 16.7190475015 

