&CONTROL
   calculation      = 'vc-relax'
   tstress          = .true.
   tprnfor          = .true.
   outdir           = './'
   pseudo_dir       = '/global/homes/p/ppiaggi/QuantumEspresso/pseudos'
/
&SYSTEM
   ecutwfc          = 150
   input_dft        = 'SCAN'
   ntyp             = 2
   nat              = 384
   ibrav            = 0
/
&ELECTRONS
   mixing_beta      = 0.5
   startingpot      = 'atomic'
   startingwfc      = 'atomic+random'
/
&IONS
/
&CELL
/

ATOMIC_SPECIES
O 15.999400004115753 O_ONCV_PBE_sr.upf
H 1.0079400002592869 H_ONCV_PBE_sr.upf

K_POINTS gamma

CELL_PARAMETERS angstrom
15.25203353253973 0.00000000000000 0.00000000000000
0.00000000000000 14.37450799650490 0.00000000000000
0.00000000000000 0.00000000000000 17.61110315809148

ATOMIC_POSITIONS angstrom
O 1.4613844032 1.9205722767 3.5047498797 
H 1.9467490338 1.5812714064 2.7115524445 
H 1.9500118278 1.5772910075 4.2944879154 
H 4.3852874085 1.5714218232 1.3284285668 
O 1.4643025773 4.6117479198 3.5143572748 
H 1.4791501495 3.6217355941 3.5011486842 
H 1.9402715978 4.9079248267 2.6991984906 
O 2.7776222266 1.0199130380 1.3337414246 
H 2.3092508690 1.3226976360 0.5166475831 
O 5.2883672190 4.6033767268 1.2774995766 
H 5.3053111979 3.6139996843 1.3088832812 
H 5.7571801459 4.9127078869 2.0922082454 
O 5.3144107234 1.9119581286 1.3030621941 
H 5.7600802751 1.5705585342 2.1174967925 
O 6.5651434911 0.9735341450 3.5011054466 
H 7.4904655227 1.3242631224 3.5204319811 
H 6.1204272433 1.3206460842 4.3132529447 
O 9.0903503846 1.8915557360 3.5401747375 
H 9.1032243741 2.8809658686 3.5177142176 
H 9.5710716035 1.5888384929 2.7305417753 
O 9.0742457997 4.5833856226 3.5039976144 
H 9.5668549158 4.9221517554 4.2930143435 
H 9.5582075792 4.9261552927 2.7116722580 
O 10.3644007441 1.0289550803 1.3252594068 
O 12.9068303875 4.6175608927 1.2874155069 
H 12.9255638754 3.6291098391 1.3164354480 
H 13.3791707409 4.9295586081 2.0991795419 
O 12.9071621283 1.9144081176 1.3120016102 
H 13.3946417918 1.5743069396 0.5216040812 
H 13.3929695966 1.5714271474 2.1036246880 
H 11.3082427549 1.3276605006 1.3187969697 
O 14.1779343336 1.0132989139 3.4997096604 
H 15.1192479953 1.3193924858 3.5009704150 
O 2.7429500643 5.5004209040 1.3168773254 
H 3.6710474068 5.1597449971 1.2933703281 
H 2.3010117188 5.1596780250 0.5013799077 
O 1.5034544842 9.1156019511 3.4793935198 
H 0.5744294462 8.7731261972 3.5068008043 
H 1.9484198196 8.7741184700 4.2943639127 
H 4.3927196379 8.7843693155 1.2918234181 
O 2.7704076791 8.2132065834 1.2824826525 
H 2.2968342386 8.5158270169 2.0969899985 
H 2.7573918152 7.2249796723 1.3032100446 
O 6.5414310211 5.4826337186 3.5039749267 
H 6.5728192784 6.4712850221 3.4987384217 
H 7.4827974816 5.1757558608 3.5022971760 
O 10.3526999405 5.4908930520 1.3131540017 
O 5.3189959042 9.1290463232 1.3120055490 
H 5.7605225312 8.7843905145 0.4967575511 
O 6.5719282486 8.1830182465 3.5156575139 
H 6.1348144976 8.5296884834 2.6996223672 
H 7.5020278481 8.5194253766 3.4995888422 
O 9.1138676439 9.0778064003 3.5309321254 
H 9.5797853420 8.7788141258 2.7105964885 
H 9.9326132753 8.5333663617 0.5101699986 
O 10.3764761654 8.1829572237 1.3223009895 
O 14.1816584200 5.5304933975 3.4796646353 
H 13.7420099089 5.1834405932 4.2953663511 
H 15.1074649667 5.1817096730 3.4980789947 
H 11.2923156638 5.1805153453 1.3135517888 
H 10.3863933740 6.4803579301 1.3117929863 
O 12.9180509116 9.0871163473 1.2827114894 
H 13.3923349831 8.7875870240 2.0975309522 
H 11.3032517658 8.5282480693 1.3029364472 
O 14.2222904814 8.2212986202 3.4816513678 
H 14.2053080518 7.2316691705 3.5049044540 
H 13.7538737953 8.5240413611 4.2983725939 
H 2.7582960075 14.4047559620 1.3140038699 
H 4.3865288509 12.1261821008 1.3057223178 
O 1.4794051361 11.8042014741 3.4872633165 
H 1.4909431437 10.8139040061 3.5092333915 
H 1.9479967342 12.1067943785 4.3046584425 
O 2.7744153232 12.7076703569 1.3095672708 
H 2.2960928212 12.3618352244 0.5164281526 
H 2.2923944292 12.3592699870 2.1006604930 
O 5.3277650621 11.8227423725 1.2997464121 
H 5.2988902499 10.8332556068 1.2933573931 
O 6.5981688431 12.6536973435 3.5274122556 
H 6.5841840077 13.6432640751 3.5126787659 
H 6.1248867253 12.3583472361 2.7101378678 
H 9.1254836210 10.0678702072 3.5117773117 
O 9.1358478369 11.7720293062 3.5455267864 
H 8.2041036718 12.1061474998 3.5135622918 
H 9.5769374462 12.1093273312 2.7267223795 
H 9.9272477962 12.3703189201 0.5137430768 
H 10.3876365097 14.4142972936 1.3190130108 
H 14.2079542900 14.3983664730 3.4999726383 
O 12.8977532122 11.7824568013 1.3043326398 
H 13.3876105532 12.1138455930 2.0967058339 
H 13.3866543546 12.1216465450 0.5127633506 
O 14.1946211507 12.6908396421 3.4892578259 
H 13.7561756037 12.3522056489 4.3079446052 
H 15.1261263750 12.3561152874 3.5119160570 
H 12.9272466208 10.0766298304 1.3031157054 
O 10.3700352904 12.7012854419 1.3333952085 
H 11.3008110214 12.3663438801 1.3027082688 
H 4.3876207022 4.9236586701 5.7033939527 
O 2.7761349969 1.0233160325 5.6711606686 
H 2.3097432486 1.3295284952 6.4884629857 
H 4.3913254859 1.5894528332 5.7067155418 
O 1.5304530748 4.6123139075 7.8813380648 
H 1.5036473568 3.6222311420 7.8889782539 
H 0.5879185183 4.9150976028 7.8940041477 
O 1.5171780984 1.9246736449 7.8745242508 
H 1.9614752089 1.5848412134 8.6904688265 
H 0.5879414712 1.5859041616 7.9037128079 
O 5.3167604428 4.5856034098 5.7262868807 
H 5.7551637962 4.9271108122 4.9073527598 
O 5.3332707423 1.8917299722 5.7158366302 
H 5.3075140375 2.8811266143 5.7110540432 
O 6.5918345333 1.0079423503 7.9360730179 
H 6.1240897462 1.3192768812 7.1220570325 
H 9.9176814332 1.3244348055 4.9366850752 
H 9.9238722336 1.3281741760 6.5195537886 
O 9.1343415810 4.5735557690 7.9270279351 
H 8.2058791021 4.9157207802 7.9080207766 
H 9.5733374919 4.9120286938 7.1086802675 
O 9.1518155915 1.8844792300 7.9274546936 
H 9.1202355742 2.8744686790 7.9195904661 
H 8.2113456302 1.5779323954 7.9244810140 
O 12.9290010014 4.6137115320 5.6803329321 
H 12.9421474192 3.6248508782 5.7041145702 
H 13.4006162473 4.9161985049 6.4954736371 
O 10.4063188171 0.9851089344 5.7265409022 
O 12.9451790502 1.9117509766 5.7305738540 
H 12.0169071506 1.5729467135 5.7127195143 
H 13.3837773853 1.5697323435 4.9134851487 
O 14.2424338805 0.9957440171 7.9134903023 
H 13.7505902446 1.3284770087 7.1231803876 
H 13.7539338699 1.3253687969 8.7079797420 
O 2.7807185363 5.5141141739 5.6955450413 
H 2.2969823186 5.1664591880 6.4869121356 
H 2.2982070865 5.1739238395 4.9025568680 
O 2.7377243344 8.2104537702 5.7042794708 
H 2.7550052347 7.2207901346 5.7006554238 
H 3.6828932834 8.5050192098 5.7036734048 
O 1.5024325465 9.1038874996 7.9207222380 
H 0.5767424936 8.7570246259 7.8987031157 
H 1.9493262447 8.7634531611 7.1058651955 
O 5.2732319718 9.0902364730 5.7021143081 
O 6.6123148810 5.5093657824 7.9098958689 
H 6.1237821745 5.1727961379 7.1192184505 
H 6.1233427477 5.1757741490 8.7037741278 
H 5.7612648533 8.7584799028 4.9082565352 
H 5.7663532210 8.7524513207 6.4914825972 
O 6.5546369098 8.2089057840 7.8929703995 
H 7.4973315259 8.5120789024 7.8949562413 
H 6.5820008019 7.2197394385 7.9005860928 
H 9.9315155226 8.5091693723 6.4923233822 
H 9.9360558594 8.5174995988 4.9089954240 
O 9.1008422662 9.0654005335 7.8813480150 
H 9.5750865202 8.7561994996 8.6924367090 
O 10.3630279422 5.4711307614 5.6913420254 
H 10.3879942040 6.4607079276 5.6927615650 
H 11.3049788733 5.1705291622 5.6910056709 
O 14.2305039318 5.4716900692 7.8866004842 
H 13.7596302282 5.1604462596 8.6991443868 
H 14.2072450174 6.4608250390 7.9114219875 
O 10.4149568258 8.1662664413 5.7006431083 
O 12.9592328811 9.0688639716 5.7146560041 
H 12.0187256696 8.7618296248 5.7103723510 
O 14.2219001050 8.1616180168 7.9061928320 
H 13.7367214342 8.5062540218 7.1153344023 
H 13.7389777586 8.5041640189 8.6977488882 
H 2.7648337006 14.4086067586 5.7002279993 
O 2.7518065060 12.7028864108 5.6866890269 
H 3.6770097272 12.3544244219 5.7119339093 
H 2.3072473396 12.3650620610 6.5037599417 
O 1.4898832112 11.8084128053 7.8916818032 
H 1.5029074010 10.8195195489 7.9116757030 
H 1.9640916428 12.1112361728 8.7059940214 
H 6.5727169656 14.3936312380 7.9083774222 
O 5.2934857021 11.7855070216 5.7337192246 
H 5.7688950876 12.0853555208 4.9200726903 
H 5.3005003192 10.7958892709 5.7097427617 
O 6.5595861441 12.6851558520 7.9334038096 
H 6.1176840152 12.3420456711 7.1168867747 
H 7.4875000333 12.3438377078 7.9105841494 
H 9.9311525619 12.3660946330 4.9235064018 
O 9.0980305901 11.7506472795 7.9146177518 
H 9.5806557699 12.0939885473 7.1221714941 
H 9.5856113945 12.0938834542 8.7043419989 
H 9.1212730304 10.0552985222 7.9080832119 
O 12.9437593805 11.7604998889 5.6999069268 
H 13.3897283675 12.1053989566 6.5124990251 
H 12.0168524561 12.1064107292 5.7227873854 
O 10.4066316632 12.6644757254 5.7388427244 
H 10.3869199336 13.6538807367 5.7260073332 
H 12.9272170002 10.0587265199 5.7215007483 
O 14.1893889878 12.6691381444 7.9133588195 
H 14.2140540188 13.6583246583 7.9144761851 
H 15.1322477077 12.3687038811 7.9147494290 
O 1.4886283190 1.8879795184 12.3270925549 
H 1.9599126857 1.5856305762 11.5114141278 
H 1.5055765211 2.8775008488 12.3049136435 
H 4.3969011177 4.9315366494 10.0911217803 
O 1.5139592492 4.5845498221 12.2690824865 
H 0.5829439450 4.9181236570 12.2967826037 
H 1.9567233298 4.9243712304 13.0854995128 
O 2.7462394963 1.0276951197 10.1005142245 
H 3.6869665940 1.3343213364 10.1071969369 
O 5.2903523934 1.9289033100 10.1132470833 
O 5.3398069070 4.6316550589 10.1017088580 
H 5.3157918062 3.6427695444 10.1049048142 
H 5.7710430957 1.5753204699 9.3247722121 
H 5.7671129256 1.5817298385 10.9074619699 
O 6.5875900241 1.0195121910 12.2931586070 
H 6.1176457859 1.3225241433 13.1088337596 
O 9.1518766764 1.8938796546 12.3021423276 
H 8.2121884422 1.5872400140 12.3040951307 
H 9.1201461156 2.8836437021 12.3061478750 
O 9.1321173706 4.5829725461 12.3019088154 
H 8.2055057297 4.9297867635 12.3141203642 
H 9.5689893592 4.9283376962 13.1191577478 
H 9.9411364227 1.3297810685 10.9070604979 
H 9.9396972305 1.3281620765 9.3239617288 
O 12.9714911388 4.5962405215 10.1054614979 
H 12.0275056086 4.8949841780 10.1104781293 
H 12.9468599113 3.6071065254 10.1079484519 
O 12.9540434998 1.8960607134 10.0934398086 
H 12.0217293337 1.5638593146 10.1189604381 
H 13.3921800051 1.5621627302 10.9144644608 
O 10.4234756239 0.9832790871 10.1152236137 
O 14.2026889821 0.9858333436 12.3082870897 
H 13.7561273332 1.3335600394 13.1198276584 
H 15.1290760564 1.3315802778 12.3280609963 
O 2.7965526083 5.5143269844 10.0777382708 
H 2.3081172159 5.1743069057 10.8675644366 
H 2.3139000824 5.1729991417 9.2836959297 
O 1.4850285167 9.0722797177 12.3244940067 
H 1.9542332780 8.7695739125 11.5086610739 
H 4.3798456174 8.7655646732 10.0902424877 
O 2.7841712299 8.2097728778 10.1140985865 
H 2.3076427723 8.5156033680 9.3021084814 
H 2.7715415968 7.2202671713 10.0839205980 
O 6.5977909242 5.4995524824 12.3257775710 
H 6.1250063778 5.2002941151 11.5100181565 
H 6.5828880376 6.4887652610 12.3085935829 
H 9.9436925650 5.1491238449 10.9092410127 
H 9.9420040981 5.1451567197 9.3248933335 
O 5.3082099551 9.1095640741 10.1159262078 
H 5.7546074079 8.7715766471 9.3010351918 
O 6.5946360254 8.1944038845 12.3036891246 
H 6.1048230487 8.5320076364 13.0951652166 
H 6.1080068656 8.5273703036 11.5095314336 
O 9.1261058555 9.0930333440 12.3251524692 
H 8.1936590141 8.7615681528 12.2983989216 
H 9.5694098550 8.7507879158 11.5102962498 
O 10.3673273775 8.1927003128 10.1010591022 
H 10.4012188652 7.2050521231 10.1057019006 
O 14.2328623979 5.4980962352 12.3021329160 
H 13.7492513942 5.1550066615 11.5102109633 
H 13.7442653011 5.1649408430 13.0943744244 
O 10.4322605340 5.4803682865 10.1154598621 
O 12.9091272913 9.0715890556 10.0940997933 
H 13.3836648534 8.7676722515 10.9063190230 
H 11.3069476547 8.5041852511 10.1063161169 
O 14.1775980132 8.2009562229 12.3193030401 
H 15.1181916664 8.5056000808 12.3136585805 
H 14.2073330125 7.2123737609 12.3081380685 
H 2.7779349385 14.4129968868 10.1024609665 
H 1.4928291868 10.0613775749 12.2996724102 
O 1.5018964261 11.7687407470 12.2824067867 
H 1.9443514695 12.1049303395 13.1007683674 
H 0.5752123959 12.1134254219 12.3066487709 
O 2.7616722219 12.7055675524 10.0878292249 
H 3.6903755593 12.3649917977 10.1161509041 
H 2.3154910282 12.3634239348 10.9014828299 
H 6.5778526881 14.4048087061 12.3165444176 
O 5.3026429735 11.8005933328 10.1414099924 
H 5.7700081078 12.1011123466 9.3221876385 
H 5.3078867598 10.8107390031 10.1134940938 
O 6.5720652943 12.6970324590 12.3333689191 
H 6.1278774354 12.3548142677 11.5177830608 
H 7.4990237348 12.3531007853 12.3097967482 
O 9.1084713241 11.7891359068 12.3271625205 
H 9.5796908124 12.0910877987 11.5110729134 
H 9.1216738067 10.7995838216 12.3049865988 
O 10.3720325340 12.6547805234 10.1040658683 
O 12.9135091751 11.7631335934 10.1053329046 
H 13.3938459336 12.1108581374 10.8975698665 
H 13.3985817672 12.1085582759 9.3151720528 
O 14.2155946583 12.6725333845 12.2852727100 
H 13.7485341442 12.3664709138 13.1016210911 
H 14.2064198949 13.6623965500 12.3173446878 
H 12.9314972096 10.0609770539 10.1117388567 
H 11.3143952001 12.3523219450 10.1040342603 
H 10.3991611440 13.6439390952 10.1085725486 
O 2.7466135339 0.9769807035 14.5270748397 
H 3.6740891610 1.3220493422 14.5081320922 
H 2.3069860714 1.3243363510 13.7113190100 
O 1.4951838675 4.5666614571 16.7126699219 
H 1.9439243445 4.9090413703 15.9004791302 
H 0.5702744331 4.9147119640 16.6875304533 
O 1.4868507399 1.8751210927 16.7372365980 
H 1.4909529246 2.8645499294 16.7021168181 
H 1.9495022934 1.5680962536 15.9186576730 
O 5.2787092762 4.5882630976 14.5028796833 
O 5.2836578423 1.8914324018 14.4928137013 
H 5.7618079663 4.9252442432 15.2981736184 
H 5.7679090544 4.9325123015 13.7156309024 
H 5.7599153453 1.6009179000 15.3100323613 
H 5.2949149833 2.8808198653 14.5045632092 
O 6.5625688967 1.0278547486 16.6969744962 
H 6.1194209363 1.3525764190 17.5197019355 
H 7.4938962381 1.3591911285 16.7307140221 
H 9.9390644336 1.3351838186 13.7288966892 
O 9.0884818952 4.6191514724 16.7060472775 
H 9.1123838147 3.6296525901 16.7320162170 
H 9.5601519987 4.9287357801 17.5189334676 
O 9.1072610025 1.9296637059 16.7356069852 
H 9.5879842139 1.5866685370 17.5297507451 
H 9.5901296123 1.5840882171 15.9445624323 
O 12.9332406115 4.5915541056 14.4887171567 
H 12.0044092012 4.9311664899 14.5130879955 
H 13.3745690538 4.9325857859 15.3064903209 
O 10.4054920719 1.0277666705 14.5441633693 
O 12.9627612791 1.8990223737 14.5223885583 
H 12.9339117304 2.8885206569 14.5169290422 
H 12.0220704752 1.5937245065 14.5217119872 
O 14.2021595973 0.9825959090 16.7382580251 
H 15.1324546464 1.3202816790 16.7181042329 
H 13.7614674205 1.3305364304 15.9243282283 
O 2.7405124005 5.4745322589 14.4966629159 
H 2.7633125125 6.4633952286 14.5005891432 
H 3.6840535061 5.1758429303 14.5014257689 
O 2.7893807435 8.1782156514 14.5037434845 
H 2.3039532625 8.5187903224 13.7119006785 
H 2.3053592004 8.5158628881 15.2975324910 
H 4.3829060057 8.7703967142 14.4986823115 
O 1.5063081709 9.0957158145 16.6887207635 
H 0.5775918658 8.7572746459 16.7143157854 
H 1.9477112840 8.7603444453 17.5084606864 
O 6.5551981917 5.5130731943 16.6897583902 
H 6.1100589486 5.1677888202 17.5023824105 
H 7.4839050608 5.1716067052 16.7178084221 
H 9.9216914565 5.1825280697 15.3160630291 
O 5.3249340321 9.0752620198 14.4964702499 
O 6.5883852268 8.2155690885 16.7251051281 
H 6.5699811745 7.2265699629 16.7084976505 
H 6.1162164086 8.5146376288 15.9091348409 
H 9.9151161904 8.5164028591 13.7309750828 
H 9.9179718087 8.5315631376 15.3161764387 
O 9.1417499237 9.0959667453 16.7212620350 
H 8.2011041141 8.7899746925 16.7126516411 
O 10.3918682417 5.4888017290 14.5012222328 
H 10.3799502849 6.4783990898 14.5317675995 
O 14.2038086212 5.4814685643 16.6851473664 
H 14.1904864688 6.4714065175 16.7124097461 
H 13.7321269245 5.1774155589 17.4995306099 
O 10.4009071827 8.1838652296 14.5254658222 
O 12.9390211494 9.1007641040 14.5417621331 
H 13.3812935926 8.7557926523 13.7276819305 
H 12.0092579419 8.7650541147 14.5193678109 
O 14.2215194467 8.1715780945 16.7200646439 
H 13.7409428284 8.5158750824 17.5132366386 
H 13.7334876027 8.5126566093 15.9299288747 
O 2.7328431430 12.6603274467 14.5133775068 
H 3.6760067784 12.3598670678 14.5059295751 
H 2.7573343301 13.6500857966 14.5086621438 
O 1.4749811111 11.7978132595 16.7315989568 
H 1.4914306634 10.8091298590 16.7090004875 
H 1.9460801403 12.1022756509 15.9162473335 
O 5.2752696790 11.7787494125 14.5039921652 
H 5.7631676953 12.1170332177 13.7120936572 
H 5.7547265242 12.1281429480 15.2950468880 
H 5.2965919460 10.0641956050 14.5015168289 
O 6.5776306513 12.7008373234 16.6802251843 
H 6.1107394605 12.3981326609 17.4978325095 
H 6.5661984251 13.6896291223 16.7039440977 
H 9.9287687181 12.3603451783 13.7061150995 
O 9.1208043877 11.7913081464 16.7271966397 
H 9.5650362429 12.1281985984 15.9102217629 
H 8.1940660519 12.1348094281 16.7019082385 
H 9.1122699322 10.0853051425 16.7143461407 
H 10.3876452926 14.4131259478 14.5140227561 
O 12.9181869089 11.8037520797 14.4931066465 
H 13.3852348171 12.1076421867 15.3097852713 
H 12.9338011941 10.8152297005 14.5155488165 
O 10.3720790252 12.7086748375 14.5191362233 
H 11.2987867656 12.3646498819 14.4984881467 
O 14.1696391967 12.6704721073 16.7266045463 
H 15.1090888375 12.3609801826 16.7208725631 
H 14.2050569300 13.6603801036 16.7225456002 

