&CONTROL
   calculation      = 'vc-relax'
   tstress          = .true.
   tprnfor          = .true.
   outdir           = './'
   pseudo_dir       = '/global/homes/p/ppiaggi/QuantumEspresso/pseudos'
/
&SYSTEM
   ecutwfc          = 150
   input_dft        = 'SCAN'
   ntyp             = 2
   nat              = 384
   ibrav            = 0
/
&ELECTRONS
   mixing_beta      = 0.5
   startingpot      = 'atomic'
   startingwfc      = 'atomic+random'
/
&IONS
/
&CELL
/

ATOMIC_SPECIES
O 15.999400004115753 O_ONCV_PBE_sr.upf
H 1.0079400002592869 H_ONCV_PBE_sr.upf

K_POINTS gamma

CELL_PARAMETERS angstrom
15.25693534654973 0.00000000000000 0.00000000000000
0.00000000000000 14.37998635674405 0.00000000000000
0.00000000000000 0.00000000000000 17.61808629863785

ATOMIC_POSITIONS angstrom
O 1.4748010525 1.8970908479 3.4867230042 
H 1.9453018052 1.5930096444 4.3021217233 
H 1.4897238293 2.8860791334 3.5123963060 
H 4.3991113939 4.9023966616 1.3065602396 
H 4.3932837904 1.5702100005 1.2955325198 
O 1.5055312778 4.5962078519 3.4941771552 
H 1.9481670728 4.9287493479 4.3137511867 
H 0.5747765742 4.9296161502 3.5233746595 
O 2.7792335236 0.9859988938 1.3024451854 
H 2.2928881070 1.3256658163 0.5103067071 
H 2.2976296371 1.3325165028 2.0928611448 
O 5.3432666041 4.6052384526 1.3086742835 
H 5.3196032744 3.6163813745 1.3038966639 
O 5.3228134730 1.9056581027 1.3207280292 
H 5.7649109084 1.5659222019 0.5038934629 
O 6.5708030297 0.9876985361 3.5371959217 
H 6.1280100659 1.3240149587 2.7201542453 
H 7.4986209885 1.3332223183 3.5135057027 
O 9.0981337084 1.8924089315 3.5360274329 
H 9.5652527136 1.5932390944 2.7166786860 
H 9.1071297347 2.8821554382 3.5150326990 
O 9.1255653385 4.5839723326 3.5358536149 
H 9.5745442650 4.9260501275 2.7233715089 
H 8.1981316528 4.9316055172 3.5083224771 
O 10.3620466328 0.9945900944 1.3356924240 
H 9.9226605331 1.3315052349 0.5160601083 
O 12.9162467303 4.6070911008 1.3303011392 
H 13.3835880123 4.9164282003 0.5153972910 
H 12.9262678089 3.6182703902 1.2973563538 
O 12.9004455568 1.9103413495 1.2914669637 
H 13.3913500774 1.5753454965 2.0821137832 
H 13.3814683035 1.5639346951 0.5000271040 
H 11.2920367667 1.3300368002 1.3063168408 
O 14.1947422776 0.9950511621 3.4737021206 
H 13.7508336044 1.3282784679 4.2924034513 
H 15.1229873406 1.3360406562 3.5023555853 
O 2.8021456681 5.4888771870 1.3038770495 
H 2.3055041647 5.1531252747 0.5171416540 
H 2.3147729531 5.1616924528 2.0994659791 
O 1.4552588566 9.1012184460 3.4966317922 
H 1.9399941949 8.7545394354 4.2866258443 
H 1.9400556551 8.7567005303 2.7060428400 
O 2.7367148816 8.1948468266 1.3083104597 
H 3.6757724003 8.5065222765 1.2989964822 
H 2.7718474348 7.2064666376 1.3070061292 
O 5.2820554911 9.0780481950 1.2997927986 
O 6.6011250463 5.4770268264 3.5276981483 
H 6.1292874862 5.1674933546 2.7148409991 
H 6.5765689819 6.4664840521 3.5010123014 
H 5.7554672219 8.7738394570 0.4861341971 
O 6.5829959933 8.1646614421 3.4894281217 
H 6.0998407976 8.5142631252 4.2791225378 
H 6.1033759787 8.5064164089 2.6956599954 
O 9.1267305927 9.0784023575 3.5165667585 
H 8.1967041169 8.7451704371 3.4877261466 
H 9.5665592041 8.7452654873 2.6959576008 
H 9.9318939529 8.5058752043 0.4877335242 
O 10.3664776081 5.4778562368 1.3152714414 
O 10.3778938705 8.1663285774 1.3032055481 
O 14.2221309055 5.5075055443 3.5178739618 
H 13.7387011249 5.1611602557 4.3086538868 
H 13.7407080251 5.1632081171 2.7259381628 
H 11.3074944161 5.1713806549 1.3114925449 
H 10.3957581547 6.4676361403 1.3010704925 
O 12.9164910296 9.0862655090 1.2640366704 
H 13.3894376374 8.7798162099 2.0766513179 
H 11.3027062864 8.5159080209 1.2800458098 
O 14.1743090814 8.2134470970 3.4923430194 
H 15.1180680366 8.5133367025 3.4956660351 
H 14.1982055445 7.2247900453 3.5027987146 
H 4.4048793683 12.1223821541 1.2977538300 
O 1.5227056387 11.8040819445 3.5013492471 
H 0.5837112681 12.1128001097 3.5026417145 
H 1.4893853044 10.8155566627 3.5013065139 
O 2.8019207312 12.6762155306 1.2865127519 
H 2.3261563089 12.3713567302 2.0982513246 
H 2.7767690551 13.6657676467 1.3064773929 
O 5.3316629638 11.7753809734 1.2714479173 
H 5.7758356878 12.1109406876 2.0890075661 
O 6.5972123635 12.6608911251 3.4784481686 
H 6.5872335915 13.6495824573 3.5047629349 
H 6.1205972434 12.3591294174 4.2925302253 
H 5.3036669056 10.0671799530 1.2812672416 
O 9.1483756287 11.7804446830 3.5026151564 
H 8.2078407186 12.0878068140 3.5017103293 
H 9.1181616032 10.7919779403 3.5016115506 
H 9.9429480842 12.3581960691 2.0984913457 
O 12.9538268063 11.7797141930 1.2821078797 
H 13.3999403719 12.1209163737 2.0968808464 
H 12.0257684679 12.1222916442 1.3107227528 
O 14.2205714326 12.6816840171 3.4798702723 
H 14.2033331890 13.6713693205 3.4988539684 
H 13.7488116542 12.3797138258 4.2945698173 
H 12.9352374793 10.0755094869 1.2904874428 
O 10.4162635740 12.6705076863 1.2880736237 
H 10.3890371431 13.6592199731 1.3152001908 
O 2.7402813453 1.0230819447 5.7083508305 
H 3.6826814057 1.3265139092 5.7082996515 
O 1.5129008591 4.6059852219 7.9259008184 
H 1.4841847379 3.6166468549 7.9181709221 
H 0.5720184011 4.9111199019 7.9187483316 
O 1.4973251576 1.9158473923 7.9279984387 
H 1.9477741242 1.5747510973 7.1160572379 
H 0.5730218496 1.5658679478 7.9003613193 
O 5.2896671197 4.5712354482 5.7205721475 
O 5.2886075719 1.8790726718 5.7325525833 
H 5.7723624701 4.9213727144 6.5101765277 
H 5.7735130811 4.9118351125 4.9289035938 
H 5.7646342856 1.5754702358 4.9197878824 
H 5.3101040821 2.8683908509 5.7135097463 
O 6.5755578338 1.0119202944 7.9360724835 
H 6.1069797963 1.3150562486 7.1188970376 
H 9.9177944461 1.3278871741 4.9135280153 
H 9.9241688969 1.3206251335 6.4951107144 
O 9.1076633715 4.6249879444 7.9463521300 
H 9.1137551603 3.6360613159 7.9257905153 
H 9.5749563500 4.9214987224 7.1259845332 
O 9.1204080803 1.9253332091 7.8983877503 
H 8.1951063487 1.5790231608 7.9207330899 
H 9.5667233335 1.5795742588 8.7104165984 
O 12.9525559493 4.5961399305 5.7081633616 
H 12.0106214820 4.8985522404 5.7095376288 
H 12.9271538759 3.6065168346 5.7059364923 
O 10.4043223693 0.9797591799 5.7021790753 
O 12.9452993288 1.9026724163 5.6836983497 
H 13.3872759182 1.5612498660 6.5007327933 
H 12.0163726551 1.5653558578 5.7077759100 
O 14.2136865934 1.0009832270 7.8768703402 
H 13.7438220381 1.2983431779 8.6945435464 
O 2.7552498789 5.5051412639 5.7030749014 
H 3.6820518625 5.1615861074 5.7273698987 
H 2.3106160109 5.1673770626 6.5192568478 
O 2.7370975595 8.1985771749 5.6817462331 
H 2.7681331442 7.2094711420 5.6952667843 
H 3.6778095978 8.5054985931 5.6807331141 
O 1.4903225369 9.0764214981 7.9147805120 
H 1.9565930949 8.7739292260 7.0969274139 
O 5.2920437163 9.0773540753 5.6635242129 
O 6.5465683227 5.4960688820 7.9123835211 
H 6.5712966601 6.4853261660 7.9021572405 
H 7.4887452528 5.1956621137 7.9171841145 
H 9.9226364110 5.1630403889 4.9211698829 
H 5.7599575897 8.7786946742 6.4829797593 
O 6.5604217858 8.1950637340 7.8666731406 
H 7.4916138815 8.5276393016 7.8921182990 
H 6.1244488522 8.5356919493 8.6877565250 
H 9.9288943221 8.4922408597 4.9076185840 
O 9.1011047451 9.1092092878 7.9008239626 
H 9.5863093250 8.7641624209 7.1106471902 
H 9.5872770805 8.7759204518 8.6948890606 
O 10.3732201890 8.1625147556 5.7270846354 
O 10.3936947359 5.4663125295 5.7375905362 
H 10.3837185637 6.4554624413 5.7091894762 
O 14.2149472707 5.4753992009 7.9306694794 
H 13.7415610248 5.1681837983 7.1188912746 
H 14.2006245906 6.4645454542 7.9047848419 
H 11.3020674622 8.5004544169 5.6925229522 
O 12.9004017162 9.1045836628 5.6840028956 
H 13.3894319852 8.7694770155 4.8913715830 
H 13.3886428523 8.7663652443 6.4737900452 
O 14.1964732375 8.1725663341 7.8731350677 
H 13.7545682774 8.5252342439 8.6846533010 
H 15.1228109459 8.5154632013 7.8919124624 
H 2.7684369064 14.4145034593 5.7006089321 
H 4.3918604278 12.1144555614 5.6928777416 
O 2.8001088616 12.7021179444 5.6941256928 
H 2.3096138979 12.3595881002 4.9062820299 
H 2.3193868110 12.3670887953 6.4906953763 
O 1.5286068953 11.7814851368 7.8877508757 
H 0.5965295938 12.1117122857 7.9088186561 
H 1.9648192442 12.1227263201 8.7066237985 
H 1.5134631045 10.0651701526 7.8977660372 
H 6.5669114083 14.4032140281 7.9096239791 
O 5.3212661141 11.7743335186 5.6664830214 
H 5.7612578123 12.1053481499 6.4882401574 
H 5.3018436449 10.0665461972 5.6850863266 
O 6.5571479568 12.6903247633 7.8842871739 
H 7.4851693689 12.3503867035 7.9093374817 
H 6.1127350328 12.3528644250 8.7009620423 
H 9.9405014000 12.3522636567 4.9094602486 
O 9.1031167692 11.7978851627 7.9251535135 
H 9.1198083245 10.8080745668 7.8996772706 
H 9.5759698947 12.1023612989 7.1121339347 
H 14.2060316230 14.3912566240 7.8971151789 
O 12.9595218837 11.8067715182 5.7115360668 
H 12.9277086464 10.8180761549 5.6987263587 
H 12.0181641104 12.1134816660 5.7093257214 
O 10.4113320475 12.6673957650 5.7200027601 
H 10.3861857929 13.6563692906 5.6908646069 
O 14.2439227297 12.6869198955 7.9012848316 
H 13.7577222294 12.3570530922 8.6973113895 
H 13.7503054933 12.3475313671 7.1133285499 
O 1.4830315224 1.8969046095 12.3541879644 
H 1.9553998516 1.5972148238 11.5380776804 
H 1.4940863773 2.8868747832 12.3305524777 
H 4.3809607492 4.9180693917 10.1179780641 
O 1.5072889751 4.5882423412 12.3390802508 
H 0.5772227377 4.9254910633 12.3078378949 
H 1.9521967944 4.9263981667 11.5221276543 
O 2.7510540125 1.0061090937 10.1532476687 
H 3.6811626664 1.3433729505 10.1256175251 
H 2.3102394112 1.3399174303 9.3341883911 
O 5.2934290692 1.8885435819 10.1458766968 
O 5.3096470363 4.5777554095 10.1426094342 
H 5.7520201766 4.9253866714 9.3303402110 
H 5.7553315305 1.5802522783 9.3273062453 
H 5.3059812621 2.8781926715 10.1164254979 
O 6.5841892440 1.0277635580 12.3397941779 
H 6.1139929235 1.3296377076 11.5224365754 
O 9.1185342764 1.9339929299 12.3320489121 
H 8.1899947432 1.5911889247 12.3112013180 
H 9.5594233828 1.5871765312 11.5174667361 
O 9.1443774305 4.6298430951 12.3217442023 
H 8.2030313712 4.9340858339 12.3188730717 
H 9.1138828230 3.6406110031 12.3141819187 
O 10.3596633479 1.0189503442 10.1136078045 
O 12.9545235101 4.5795908106 10.1339251337 
H 12.0296085157 4.9274781124 10.1173007660 
H 13.3951849507 4.9228416382 9.3169963975 
O 12.9246236017 1.8666231455 10.0929606734 
H 13.3981029906 1.5658592598 10.9078773338 
H 12.9414656634 2.8545252473 10.1132347887 
H 11.3035470856 1.3133880410 10.1164966744 
O 14.2013751342 0.9869726852 12.2982591381 
H 13.7520023250 1.3300607226 13.1091455489 
H 15.1283368476 1.3314462206 12.3284652791 
O 2.7728296994 5.4772425283 10.1392801988 
H 2.7598689936 6.4666532658 10.1051662677 
H 2.2980622407 5.1668296745 9.3275367725 
O 1.4708409192 9.0966521129 12.3006289151 
H 1.9516476191 8.7543717743 13.0935089862 
H 1.9560667348 8.7572593705 11.5095763072 
O 2.7593862891 8.1686413399 10.1093185316 
H 2.3149506283 8.5118122967 9.2948630379 
H 3.6864128068 8.5105053828 10.0841138941 
O 5.3080156939 9.0826694255 10.0713286156 
O 6.5986718479 5.5259701197 12.3222017580 
H 6.1151407221 5.1865296355 13.1154926668 
H 6.1116661808 5.1795530352 11.5342892525 
H 9.9322720817 5.1930839330 10.9170006785 
H 9.9347324238 5.1904799901 9.3350762644 
H 5.7748720748 8.7829573143 10.8900288856 
O 6.5931587705 8.2230900356 12.2913012274 
H 6.5777623617 7.2336978093 12.3188921190 
H 6.1141022682 8.5282238593 13.1013980484 
O 9.1253230444 9.1191804064 12.2828424471 
H 9.5719485595 8.7776070499 13.0964597924 
H 8.1978949345 8.7743673675 12.3115858720 
H 9.9363612432 8.5346380678 10.8978127702 
O 14.2253934222 5.4731151313 12.3286897001 
H 13.7580581348 5.1667293809 11.5109460205 
H 14.2117119780 6.4624657032 12.2983306662 
O 10.4201023566 5.5326802561 10.1260677146 
O 12.9712741871 9.0894625535 10.0914049727 
H 12.0286558214 8.7890064231 10.0996370970 
O 10.4146568816 8.2283915048 10.0877210480 
H 10.3980306663 7.2392914265 10.1172011455 
O 14.1977288851 8.1675861901 12.3175651765 
H 13.7583808934 8.5120312285 11.5015987266 
H 15.1271189056 8.5055131497 12.2941836938 
H 4.3855750126 12.1183765685 10.1228957708 
O 1.5054606432 11.8032166226 12.3109804739 
H 1.4813616607 10.8150016827 12.3098599591 
H 0.5643412982 12.1054013793 12.3051644794 
O 2.7825186310 12.6787974382 10.1009470196 
H 2.7672324189 13.6672331971 10.1303202355 
H 2.3045173956 12.3709729209 10.9109135009 
H 6.5809031577 14.4183793123 12.3145970496 
O 5.3134666425 11.7757821467 10.0887087480 
H 5.7640988828 12.1137602982 10.9012940396 
O 6.5759816566 12.7114731359 12.2884146041 
H 7.5040205419 12.3676813483 12.3087626674 
H 6.1328190988 12.3675504259 13.1023601758 
H 5.3095427354 10.0722628903 10.0984141855 
O 9.1039500539 11.8095150479 12.2770706301 
H 9.1145600494 10.8196953712 12.3017962649 
H 9.5777092408 12.1109161634 13.0923246957 
H 9.9240095060 12.3621404218 10.8958606036 
H 9.9229463982 12.3618384653 9.3116613227 
H 10.3777425217 14.4090330028 10.1124559944 
O 12.9475011529 11.7859815990 10.0843493618 
H 12.0169042253 12.1192972877 10.1016888850 
H 13.3813771414 12.1283335546 10.9060094157 
O 14.1997227874 12.6741313762 12.2786106832 
H 13.7335932359 12.3672161363 13.0953582284 
H 14.1969219235 13.6632808317 12.3125805650 
H 12.9453261348 10.0785062825 10.0992946001 
O 10.4038228075 12.7087087412 10.1026953625 
O 2.7409738737 1.0001168701 14.5515791228 
H 3.6694489960 1.3387289477 14.5268627628 
H 2.3000187960 1.3435218561 13.7339542330 
O 1.4823825037 4.5726316574 16.7564073514 
H 0.5557182670 4.9185646755 16.7288186660 
H 1.9273519565 4.9068002806 15.9390638340 
O 1.4644794181 1.8766678112 16.7487965853 
H 1.9388977832 1.5822948389 15.9312080516 
H 1.4699534998 2.8661063074 16.7305035860 
O 5.2828665099 1.9251574911 14.5264959995 
O 5.2863088143 4.6205432837 14.5017518796 
H 5.3049308887 3.6312588564 14.5235214277 
H 5.7610791209 4.9226318422 15.3157560125 
H 5.7647499733 1.5854894982 13.7323756822 
H 5.7711696108 1.5814793375 15.3152795311 
O 6.5609791769 1.0154749133 16.7149284417 
H 7.5010019071 1.3241725720 16.7160791178 
H 9.9197703965 1.3348481602 13.7129697530 
O 9.1007197029 4.5859719992 16.7308343148 
H 9.5855274989 4.9217443129 17.5253406398 
H 9.5897499579 4.9277287256 15.9424766160 
O 9.1099817234 1.8914539975 16.7414872761 
H 9.5794278264 1.5891326049 15.9248997539 
H 9.1263573293 2.8808207654 16.7205294704 
O 12.9284387123 4.6225250197 14.5343092203 
H 13.3985219874 4.9210431928 13.7168718217 
H 12.9353467656 3.6334387707 14.5149941167 
O 10.3947632986 1.0284112542 14.5247494561 
O 12.9386346454 1.9256797936 14.4999200128 
H 13.3785444293 1.5699481219 15.3104319590 
H 12.0105881222 1.5849792617 14.5141905324 
O 14.1709438390 0.9905342880 16.7144757310 
H 15.1118025000 1.2970641891 16.7203351121 
O 2.7419554670 5.5022727995 14.5535269259 
H 3.6711030206 5.1638917655 14.5286012209 
H 2.3015947807 5.1673943694 13.7337308030 
O 2.7637757246 8.2022851268 14.4957777550 
H 2.7584649837 7.2131492562 14.5266429413 
H 2.2938844979 8.5057961743 15.3110824775 
H 4.3731904517 8.7662408178 14.5114417117 
O 1.4645274724 9.0699896619 16.7037267874 
H 1.9345670709 8.7580016945 17.5158259185 
O 6.5638956194 5.5154576289 16.6965509175 
H 6.1242441246 5.1731594365 17.5136444534 
H 7.4925445931 5.1772947331 16.7222754856 
H 9.9430786833 5.1782699452 13.7269444612 
O 5.2997636070 9.1123587208 14.4872986373 
H 5.7456074733 8.7651874046 15.2998252796 
O 6.5447851063 8.2061256913 16.6997983443 
H 6.5705380820 7.2166330180 16.7045880010 
H 7.4860429524 8.5087917102 16.7004278159 
O 9.1078167803 9.0672794984 16.7270068163 
H 9.5811659093 8.7648067555 15.9114546588 
O 10.3629818105 8.2117533392 14.5086241616 
H 10.3887118724 7.2221052636 14.5103326165 
O 10.3854467669 5.5205536163 14.5429076571 
H 11.3149945610 5.1829459218 14.5178462878 
O 14.2091807997 5.4854085109 16.7458773497 
H 13.7455679068 5.1824316280 15.9259562666 
H 14.1981913497 6.4744249299 16.7187020597 
H 11.3063061861 8.5119676903 14.5040593016 
O 12.9005295731 9.0928985311 14.4980186028 
H 13.3917482215 8.7535202324 13.7099843435 
H 13.3862071091 8.7612414139 15.2940012626 
O 14.1820858055 8.1850398585 16.6862095782 
H 13.7369314584 8.5299203642 17.4999507135 
H 15.1110444262 8.5246544346 16.7149519139 
H 4.3979237248 12.1159153992 14.5174560182 
O 2.7748295714 12.6820298456 14.5416119095 
H 2.3037297697 12.3763395868 13.7286828140 
H 2.7549842813 13.6710414121 14.5190677893 
O 1.4943240936 11.7578041004 16.7265016773 
H 1.9706217499 12.1099837555 15.9345694169 
H 1.9748232246 12.1057935148 17.5175288521 
H 1.4952577515 10.0593281212 16.7304153127 
H 6.5944326966 14.4067496737 16.7060793304 
O 5.3369223665 11.8058973058 14.5151793012 
H 5.3007099094 10.8167172062 14.5115523400 
O 6.6246427370 12.6943404479 16.7057591216 
H 6.1332798219 12.3552349402 15.9172647397 
H 6.1390483374 12.3607660967 17.5004035686 
H 9.9414200553 12.3648132296 15.2909779441 
O 9.1574642585 11.7700630948 16.6919611400 
H 8.2280911489 12.1072328241 16.7165588203 
H 9.5987109941 12.1101848782 17.5081695802 
H 9.1329389381 10.0559570247 16.7096345082 
H 10.3838687147 14.4196485435 14.4968921307 
H 14.2023778578 14.3822221986 16.7117926991 
O 12.9114110207 11.7949751467 14.4883794847 
H 13.3898368554 12.0875245812 15.3036852634 
H 12.9226177880 10.8058681483 14.5024246584 
O 10.3812407527 12.7032452018 14.4725482110 
H 11.3089228779 12.3602837110 14.4985959063 
O 14.1993827565 12.6640976258 16.6879724824 
H 13.7588302967 12.3365862790 17.5118033053 
H 15.1298598451 12.3318747847 16.7184915016 

