&CONTROL
   calculation      = 'vc-relax'
   tstress          = .true.
   tprnfor          = .true.
   outdir           = './'
   pseudo_dir       = '/global/homes/p/ppiaggi/QuantumEspresso/pseudos'
/
&SYSTEM
   ecutwfc          = 150
   input_dft        = 'SCAN'
   ntyp             = 2
   nat              = 384
   ibrav            = 0
/
&ELECTRONS
   mixing_beta      = 0.5
   startingpot      = 'atomic'
   startingwfc      = 'atomic+random'
/
&IONS
/
&CELL
/

ATOMIC_SPECIES
O 15.999400004115753 O_ONCV_PBE_sr.upf
H 1.0079400002592869 H_ONCV_PBE_sr.upf

K_POINTS gamma

CELL_PARAMETERS angstrom
15.25377378371053 0.00000000000000 0.00000000000000
0.00000000000000 14.37923211053543 0.00000000000000
0.00000000000000 0.00000000000000 17.61913497407861

ATOMIC_POSITIONS angstrom
O 1.5218767342 1.8820460038 3.5034849798 
H 1.4947448562 2.8709669950 3.5004514397 
H 0.5810528193 1.5765572402 3.4987533208 
H 4.3930627534 4.8935879073 1.2938869461 
H 4.4014006416 1.5565965811 1.3035386804 
O 1.4748201225 4.5808009928 3.5054994179 
H 1.9585878130 4.9256728858 2.7135972246 
H 1.9513518855 4.9307681269 4.2976113490 
O 2.7983958497 0.9762715802 1.3084604625 
H 2.3153568043 1.3174375193 2.1012079550 
H 2.3121014709 1.3208588802 0.5180547137 
O 5.3352053686 4.5935300486 1.2885704618 
H 5.3129384943 3.6046140941 1.2900803444 
O 5.3321470547 1.8916246897 1.2747454838 
H 5.7705863423 1.5604878193 2.0971486638 
O 6.5670487971 0.9834836123 3.4963635114 
H 6.1197442386 1.3252021289 4.3091047620 
H 7.4932613473 1.3327211451 3.5210677216 
O 9.0902482646 1.8885043135 3.4820580025 
H 9.5709577631 1.5937712318 4.2956735703 
H 9.1027717467 2.8777994155 3.5010122389 
O 9.0778657764 4.5884058098 3.4995552830 
H 9.5667045744 4.9218389149 2.7067521618 
H 9.5681505557 4.9254684897 4.2892190278 
H 9.9216166136 1.3188586417 2.0809985914 
O 12.9008191572 4.5683894839 1.3102699479 
H 13.3809422473 4.9084414994 0.5153959107 
H 13.3895357655 4.9141374728 2.0973660966 
O 12.9537935861 1.8715541765 1.2900522709 
H 12.9257229451 2.8607362854 1.2999989292 
H 12.0124233035 1.5679860247 1.2892888906 
O 10.3946032591 1.0143963412 1.2682881261 
O 14.2229569595 1.0079745698 3.5221678284 
H 13.7510954476 1.3068267102 2.7064811726 
O 2.7764349386 5.4698760946 1.3277334475 
H 2.3003680967 5.1651879738 0.5155178441 
H 2.7621653198 6.4592292880 1.2997236201 
O 1.5061705950 9.0938169784 3.5231028369 
H 1.9479216028 8.7559820647 2.7049564350 
H 0.5738655372 8.7637657036 3.4920407876 
O 2.7432090364 8.1658332269 1.3175760477 
H 2.2963814449 8.5035987716 0.5013890721 
H 3.6684891235 8.5130228079 1.2923471761 
O 5.2731902416 9.1167630475 1.3087450042 
O 6.5522759111 5.5146507772 3.5187111176 
H 7.4820108458 5.1766532331 3.4973885698 
H 6.1153136768 5.1698231563 2.7016919793 
H 9.9293314682 5.1706369015 0.5025630146 
H 5.7559367422 8.7786841513 0.5148644234 
H 5.7593568527 8.7691871892 2.0969898884 
O 6.5407847151 8.2066769981 3.5017869398 
H 6.5698017786 7.2167362291 3.5000822723 
H 7.4825169316 8.5094239638 3.4971046462 
O 9.1033670459 9.0771467907 3.4702717241 
H 9.5714991155 8.7680893741 4.2860436081 
H 9.9160782505 8.5215767576 2.0885615213 
O 14.1832097226 5.4794549739 3.4945963094 
H 14.2127171115 6.4683700899 3.4901263295 
H 15.1245274102 5.1757109222 3.4979529605 
O 10.3659604642 5.5117018738 1.3222037963 
H 11.2939294126 5.1710101509 1.3035995359 
O 12.9489454202 9.0802847283 1.2953724074 
H 12.0069708289 8.7800795155 1.2961101533 
O 10.3835323542 8.2157036072 1.2706706471 
H 10.3700209796 7.2271658040 1.2969692795 
O 14.2267339276 8.1848646850 3.4875814946 
H 13.7407371241 8.5238193626 2.6954626181 
H 13.7367769072 8.5205709722 4.2785504225 
O 1.4803627099 11.7892647065 3.5173180114 
H 1.9524060757 12.0900938055 2.7019414508 
H 1.4977291395 10.7994291862 3.4973483993 
O 2.7476650225 12.6590053704 1.2900234886 
H 2.7755973994 13.6482953152 1.2979043060 
H 3.6901881770 12.3556760970 1.2925081014 
O 5.2995476611 11.8042778968 1.2745180323 
H 5.3087922060 10.8147138720 1.3060660040 
H 5.7672209806 12.1139170652 2.0895686191 
O 6.5867583338 12.6760036601 3.4742010358 
H 6.5785108870 13.6657963072 3.5071557881 
H 6.1195254915 12.3698852849 4.2904801572 
H 9.1131166885 10.0662895632 3.5009486341 
O 9.1224676980 11.7676234084 3.4781156535 
H 9.5633651210 12.1165699674 4.2909408386 
H 8.1952637163 12.1121843374 3.4979932432 
H 9.9272393628 12.3643631580 0.4955002987 
H 9.9264124430 12.3597855430 2.0784353992 
H 10.3808876083 14.4041547176 1.2929976847 
H 14.2112268610 14.3979583742 3.5029633716 
O 12.9425019591 11.7703750958 1.3165476644 
H 13.3933250865 12.1069259104 0.5030027968 
H 12.0153585738 12.1135276633 1.2863202954 
O 14.1993863095 12.6913332722 3.5300500522 
H 15.1263033791 12.3462709299 3.4977384709 
H 13.7514025618 12.3555807530 2.7151381003 
H 12.9247152819 10.0702653355 1.2973726995 
O 10.4138131108 12.7006267247 1.2891014771 
H 4.3817150937 4.9302727724 5.7065047155 
O 2.7715018669 1.0169751222 5.7374614046 
H 2.3049990580 1.3244113224 4.9214083289 
H 4.3850912527 1.5844934575 5.7199467293 
O 1.5216758808 4.6121023107 7.9166175352 
H 1.4924851562 3.6225127518 7.9054263411 
H 0.5815778451 4.9168592809 7.9147315097 
O 1.5035490208 1.9226467913 7.9218162190 
H 1.9462973108 1.5727290757 7.1082334638 
H 0.5772240329 1.5772651559 7.9026877766 
O 5.3089308604 4.5876485335 5.7284979178 
H 5.7484160572 4.9260382105 4.9098126748 
O 5.3257997065 1.8902001478 5.7256804666 
H 5.2970909969 2.8789755926 5.7149828377 
O 6.5937883921 1.0228202067 7.9335399622 
H 6.1145639638 1.3277658241 7.1232248655 
H 9.9392603364 1.3583122888 6.4978464187 
O 9.1451000317 4.6284158667 7.9011632336 
H 9.1186923898 3.6390243382 7.9077423694 
H 8.2035971831 4.9302361199 7.9043298531 
O 9.1312653224 1.9362349767 7.8899004661 
H 9.5748084979 1.5861836141 8.7017249059 
H 8.2043789897 1.5909921474 7.9106267175 
O 10.3790249286 1.0198683789 5.6789414553 
O 12.9130436192 4.6165602115 5.7207087331 
H 13.3889918600 4.9220797941 4.9098517890 
H 12.9378500745 3.6273441046 5.7004617655 
H 11.3092130580 1.3545609888 5.7031459748 
O 12.9258404632 1.9275303339 5.7036968417 
H 13.4031147164 1.5784737237 6.4965967888 
H 13.4054183586 1.5770179858 4.9131025300 
O 14.2148887649 1.0091624022 7.8830925904 
H 13.7422200347 1.3071069768 8.6993976744 
O 2.7691696959 5.4973386762 5.6947857903 
H 2.3015061339 5.1902321015 6.5106092766 
H 2.7528777384 6.4858214137 5.7202011259 
O 2.7401877616 8.2042244292 5.7404182569 
H 3.6701076083 8.5379127386 5.7086885794 
H 2.2984092395 8.5316309921 4.9178249103 
O 1.4764219349 9.0837088681 7.9438659893 
H 1.9459541417 8.7881895839 7.1240631937 
O 5.2855703957 9.1163116907 5.6969592319 
O 6.5985799416 5.5204983314 7.9076849170 
H 6.1096948009 5.1791742574 7.1185891903 
H 6.1172254965 5.1788517894 8.7014899817 
H 9.9323844895 5.1827023709 6.4945130920 
H 5.7696555782 8.7774658789 6.4895450127 
H 5.7670849924 8.7664813596 4.9062571798 
O 6.5954617486 8.2175526449 7.8892588309 
H 6.1210133408 8.5216265971 8.7026344190 
H 6.5771801001 7.2281404891 7.9118129438 
H 9.9272393560 8.5150602599 6.4840114305 
O 9.1315919418 9.1043485877 7.8669489576 
H 8.2026385929 8.7644869091 7.8990289417 
H 9.5785558064 8.7689485961 8.6828673379 
O 10.3752443557 5.5224197966 5.6774963400 
H 11.3018898462 5.1767929215 5.7015943567 
O 14.2088244585 5.4808989797 7.9350185436 
H 13.7374843267 5.1777757960 7.1203017746 
H 14.1913963852 6.4700765710 7.9100642336 
O 10.3959495140 8.2123125457 5.6663153177 
H 10.3864998395 7.2224388225 5.6933900406 
O 12.9315412515 9.1044372778 5.6663930026 
H 13.3711663552 8.7670807074 6.4847824209 
H 12.0018602571 8.7660168745 5.6884491591 
O 14.1802907368 8.1808650080 7.8819122100 
H 13.7376321164 8.5268416317 8.6963214523 
H 15.1074124692 8.5222276738 7.9076589919 
H 2.7554899926 14.4069157040 5.7071809595 
O 2.7435582451 12.7037683296 5.7165679269 
H 2.3006307844 12.3561235838 4.9036013935 
H 3.6718674662 12.3630414017 5.6931600823 
O 1.5094240034 11.7904372514 7.9414897050 
H 1.9482814707 12.1204760398 7.1189730300 
H 0.5786223315 12.1234552955 7.9099299370 
H 1.4902030010 10.0721952178 7.9268035621 
H 6.5778654995 14.4130679184 7.9121077439 
O 5.2898387907 11.8097809245 5.6811858585 
H 5.3085103112 10.8202110452 5.7006786218 
H 5.7613917462 12.1119678774 6.4963128294 
O 6.5632210769 12.7045306381 7.8869591304 
H 7.4907540120 12.3616682461 7.9048504516 
H 6.1254760408 12.3589125678 8.7038970269 
O 9.1045475152 11.8045761750 7.9225984861 
H 9.1174646352 10.8158183890 7.8923180948 
H 9.5752659344 12.1144358337 7.1101298995 
O 10.3607271945 12.6918433843 5.7007269421 
H 14.2050843014 14.3986558744 7.9025945643 
O 12.9149533338 11.8105574897 5.7178496539 
H 12.9214283690 10.8219228383 5.6947811747 
H 13.3949591687 12.1084186977 4.9048610411 
H 10.3880397028 13.6798389591 5.6994355479 
H 11.3019005852 12.3875647637 5.6980137532 
O 14.2242020536 12.6974658068 7.8998860545 
H 13.7377175526 12.3594068828 7.1074228945 
H 13.7384510429 12.3608925743 8.6932882039 
O 1.4692086651 1.8889375575 12.2955729776 
H 1.9431797547 1.5857283795 13.1091817820 
H 1.4810564186 2.8777609813 12.3217617098 
H 4.3987288297 1.5717796186 10.1048989631 
O 1.4633726633 4.5893469580 12.3253692752 
H 1.9510780660 4.9258937856 11.5341573852 
H 1.9513449941 4.9273660195 13.1172691697 
O 2.7873252835 0.9932066327 10.1138775269 
H 2.2956487416 1.3342343074 10.9010007355 
H 2.3057078120 1.3301030986 9.3187934071 
O 5.2991094617 4.6105744073 10.0925343293 
H 5.7701724014 4.9070971528 10.9114159662 
H 5.3131474978 3.6216380665 10.1085637731 
O 5.3280857616 1.9068952228 10.1340629545 
H 5.7739524760 1.5706058104 9.3168202876 
O 6.5671788228 0.9968761251 12.3506127246 
H 6.1250224941 1.3265392907 11.5296750130 
H 7.4965715810 1.3364872515 12.3174105324 
O 9.0977344030 1.8910211526 12.3236464108 
H 9.1220698800 2.8807130695 12.3037030998 
H 9.5681253931 1.5854148805 11.5089875667 
O 9.1101231103 4.5811471689 12.3100125373 
H 9.5928776560 4.9253214194 13.1027864380 
H 9.5931801974 4.9234496818 11.5184340345 
O 10.3618380500 1.0140212778 10.1023900114 
O 12.9511885217 4.5660001252 10.1368194748 
H 13.3962244537 4.9108011898 9.3238668534 
H 12.0254038020 4.9127054733 10.1090423913 
O 12.9134437824 1.8688979498 10.0861112660 
H 13.3859783424 1.5613715583 10.8993834411 
H 12.9326958674 2.8576816955 10.1132991333 
H 11.3050364366 1.3142625800 10.1066695058 
O 14.1767079731 1.0102295421 12.3039046432 
H 15.1163606773 1.3207668134 12.3095925422 
O 2.7562737851 5.5125636342 10.1332920626 
H 3.6841558766 5.1712688103 10.1124565123 
H 2.3135648099 5.1657609689 9.3191743168 
O 1.5066658778 9.1075573260 12.3324323153 
H 1.9496988572 8.7607324419 11.5172296150 
H 0.5782132922 8.7699912681 12.3073635815 
H 4.3894524282 8.7700071364 10.1122959414 
O 2.7647690073 8.2042237549 10.1427045822 
H 2.7562027497 7.2146959351 10.1146545643 
H 2.2958007653 8.5104567951 9.3270289163 
O 6.5615251744 5.4926100500 12.2887871442 
H 6.1213313699 5.1581438750 13.1098134339 
H 7.4916767592 5.1585578547 12.3155494894 
H 9.9436300381 5.1876719680 9.3048062589 
O 5.3161912079 9.1129017897 10.0887280865 
H 5.7611753683 8.7585203548 10.8985366545 
O 6.5497968257 8.1900344435 12.2952233856 
H 7.4911678369 8.4913631957 12.3003303825 
H 6.5740489852 7.2011328626 12.3015443646 
O 9.1151582347 9.0605627866 12.2783546292 
H 9.5868075003 8.7560941768 13.0934292176 
H 9.9407843908 8.5234569917 10.8938924571 
O 10.3857379799 8.1882469875 10.0755345400 
O 14.1800689247 5.5049528915 12.3460721481 
H 15.1103962393 5.1709761773 12.3234367016 
H 13.7415552310 5.1606615360 11.5286800391 
O 10.4171369224 5.4857364884 10.1210573014 
H 10.4067331463 6.4747677895 10.0996810951 
O 12.9263966976 9.0895398500 10.0787567104 
H 13.3886008680 8.7825093979 10.8984222982 
H 11.3120387908 8.5331414377 10.1008661610 
O 14.2041615932 8.2146456160 12.2887098129 
H 13.7357632921 8.5178645780 13.1062689840 
H 14.1916371049 7.2266581005 12.3127000498 
H 4.4056281045 12.1130106486 10.1203922660 
O 1.5001401258 11.7981270529 12.3456368046 
H 1.5095668609 10.8087445571 12.3162813155 
H 1.9664274693 12.1044242768 11.5288868745 
O 2.7895706373 12.6729809257 10.1387753796 
H 2.3151591704 12.3722746547 9.3243484632 
H 2.7723956207 13.6616123203 10.1178007672 
O 5.3460330293 11.8058267567 10.1214084886 
H 5.3129251141 10.8167584759 10.1212804764 
O 6.5943503454 12.6793834659 12.3526246356 
H 6.1265518208 12.3778005300 11.5345132772 
H 6.5799665330 13.6689897320 12.3316322961 
H 9.1266116224 10.0497931782 12.3101213546 
O 9.1368505778 11.7556421421 12.3047339529 
H 9.5903345418 12.0975937773 13.1144800363 
H 8.2127222246 12.1049288916 12.3353456108 
H 9.9286869240 12.3468164842 10.9099377771 
H 9.9258425125 12.3520657590 9.3258410894 
H 10.3850807845 14.4047557372 10.1080168330 
H 14.2102301574 14.4006722318 12.3112450268 
O 12.9511868082 11.7837507177 10.0882313321 
H 13.3936549316 12.1165597442 10.9075571508 
H 12.0191717174 12.1128455476 10.1189012871 
O 14.2001830929 12.6955728648 12.2977863630 
H 13.7559421941 12.3538203298 13.1124691121 
H 15.1287656509 12.3581236380 12.3268176504 
H 12.9418907784 10.0789101614 10.1067110362 
O 10.4111857153 12.6898595561 10.1178669069 
O 2.7499473332 0.9910228735 14.4924207773 
H 2.3114327374 1.3248693675 15.3133000345 
H 3.6770060604 1.3340721802 14.5172570754 
O 1.4966941117 4.5747562450 16.7521831298 
H 0.5669726041 4.9137067851 16.7294192399 
H 1.9370511404 4.9207345372 15.9369540945 
O 1.5307138771 1.8789847041 16.7388838751 
H 0.5882130651 1.5765618414 16.7355722594 
H 1.4998804968 2.8683486995 16.7373290195 
O 5.2826005034 1.9281786088 14.5260926019 
O 5.2928873527 4.6228940120 14.4958273340 
H 5.7701184004 4.9292938721 15.3064275479 
H 5.3094013753 3.6332441474 14.5250300311 
H 5.7680175470 1.5858820964 15.3168204443 
H 5.7709296218 1.5889063935 13.7352624989 
O 6.6050638986 1.0126544289 16.6963945814 
H 6.1339412190 1.3076041934 17.5154883992 
H 9.9277496391 1.3192204807 13.7146957521 
H 9.9298962887 1.3198196176 15.2972141415 
O 9.1111773724 4.6147414957 16.7338048658 
H 9.1252211367 3.6252620556 16.7096957827 
H 9.5825443831 4.9175930841 15.9189266206 
O 9.1362997488 1.9181663540 16.6813485834 
H 9.5763862739 1.5762344076 17.4981364394 
H 8.2075303262 1.5769823887 16.7069434530 
O 12.9236461322 4.6098292909 14.5455056547 
H 13.3904438577 4.9145886761 13.7269137276 
H 12.9340277016 3.6211295138 14.5173244535 
O 10.4138113443 0.9779720192 14.5046195654 
O 12.9440578666 1.9102015648 14.5351223445 
H 13.3846623189 1.5715156586 13.7172185054 
H 12.0160138946 1.5687419468 14.5094719307 
O 14.2415275536 0.9901276540 16.7240062033 
H 13.7489963878 1.3262157669 17.5144362950 
H 13.7568985588 1.3265254692 15.9310506602 
O 2.7325971058 5.4832735293 14.5252598169 
H 3.6743726769 5.1808830510 14.5217384633 
H 2.7596962160 6.4724758810 14.5272648284 
O 2.7512001270 8.1813154505 14.5462709672 
H 3.6808018317 8.5194579709 14.5194402468 
H 2.3107873090 8.5197661799 13.7282047022 
O 1.4689177505 9.0659729298 16.7430347249 
H 1.9470356496 8.7672168388 15.9298101102 
O 5.2913475382 9.0717031831 14.5284640246 
O 6.5744476839 5.5222075792 16.6961351074 
H 7.5009889129 5.1760807789 16.7151406530 
H 6.1287322839 5.1670343195 17.5040894923 
H 5.7557577953 8.7626503146 13.7122075574 
O 6.5813536926 8.2210366198 16.7371194933 
H 6.1109808550 8.5169339174 15.9190750036 
H 6.5773815515 7.2319575912 16.7199548701 
H 9.9417365258 8.5214474950 15.2989048318 
O 9.1310975197 9.1180876400 16.6938959848 
H 9.5686135230 8.7739792349 17.5127413064 
H 8.2015059567 8.7816600342 16.7155359899 
O 10.3680925840 5.4819939203 14.5045736867 
O 10.3844444851 8.1772668174 14.4848687267 
H 11.3086645953 5.1748243219 14.5119410072 
H 10.3994670307 6.4711034212 14.5033938540 
O 14.2116602677 5.4681171772 16.7481544687 
H 14.2004461382 6.4574881208 16.7256744051 
H 13.7445413686 5.1666117896 15.9295141363 
H 11.3137765757 8.5178931969 14.5089534702 
O 12.9190085952 9.0678223994 14.4910131099 
H 13.3858901730 8.7602598041 15.3074217959 
O 14.1855420273 8.1649263975 16.6961363657 
H 13.7394685839 8.5134964761 17.5067289291 
H 15.1120797685 8.5114045306 16.7180290956 
H 4.3923715408 12.1043088163 14.5136600855 
O 2.7824296112 12.6638226089 14.5385837316 
H 2.7704506328 13.6524289907 14.5138249214 
H 2.3174297729 12.3586564303 13.7190193411 
O 1.4696771916 11.7613390064 16.7227906570 
H 1.9519767743 12.0999174017 15.9287791530 
H 1.9613994029 12.1042132258 17.5105974391 
H 1.4875918511 10.0554675012 16.7257466773 
H 6.5929232967 14.4026807466 16.7129210956 
O 5.3209453756 11.7626714432 14.5373772097 
H 5.7637473703 12.1134005539 13.7243900794 
H 5.3076682962 10.0612383862 14.4999740147 
O 6.6086711228 12.6928928689 16.7131532296 
H 6.1196656639 12.3502887952 15.9244251999 
H 6.1255103876 12.3557769274 17.5082489918 
H 9.9489272485 12.3631307279 15.3039435846 
O 9.1492405193 11.8097371042 16.7098062025 
H 8.2066058771 12.1125476043 16.7099472255 
H 9.1209049661 10.8199945751 16.7147194550 
O 12.9505237179 11.7563729897 14.4985127427 
H 13.3989042848 12.0959029549 15.3115719405 
H 12.0242232961 12.1061626269 14.5261499912 
O 10.4284371297 12.6631311179 14.4919762923 
H 10.4048478854 13.6525283957 14.5098799113 
H 12.9319673276 10.0578737779 14.5210535656 
O 14.1948109605 12.6628764108 16.7234079395 
H 15.1374767628 12.3602633496 16.7242835052 
H 14.2189656096 13.6514711469 16.7214335062 

