echo both

variable        num equal REPLACE
log             ${num}.log
include         ../in.seed
units           real
atom_style      full
read_data       ../../1c-${num}.data

include         ../in.setup

timer           timeout 00:15:00 every 1000

minimize        1.e-8 1.e-10 10000 100000

fix             1 all box/relax aniso 0.0
minimize        1.e-8 1.e-10 10000 100000
unfix           1

fix             1 all box/relax aniso 0.0
minimize        1.e-8 1.e-10 10000 100000
unfix           1

fix             1 all box/relax aniso 0.0
minimize        1.e-8 1.e-10 10000 100000
unfix           1

write_data      min${num}.data

